    2    2    1    1
  0.2391230E+02  0.4074323E-09  0.4074323E-09  0.4074323E-09  0.5000000E-15
   1.0000000000000000E-004
  CAR 
 GaAs DOS                                
      8    455      8

  0.3742002E-15  0.3742002E-15  0.3742002E-15  0.6400000E-04
    1      -10.023773   1.000000
    2        2.287186   1.000000
    3        2.287186   1.000000
    4        2.287186   1.000000
    5        2.437847   0.000000
    6        6.032472   0.000000
    7        6.032472   0.000000
    8        6.032472   0.000000

  0.4000000E-01  0.3747003E-15  0.3747003E-15  0.5120000E-03
    1      -10.007608   1.000000
    2        1.727232   1.000000
    3        2.262308   1.000000
    4        2.262308   1.000000
    5        2.926612   0.000000
    6        6.051054   0.000000
    7        6.070396   0.000000
    8        6.070396   0.000000

  0.8000000E-01  0.3677614E-15  0.3677614E-15  0.5120000E-03
    1       -9.959324   1.000000
    2        1.062377   1.000000
    3        2.192099   1.000000
    4        2.192099   1.000000
    5        3.362474   0.000000
    6        6.139551   0.000000
    7        6.177130   0.000000
    8        6.177130   0.000000

  0.1200000E+00  0.3816392E-15  0.3816392E-15  0.5120000E-03
    1       -9.879795   1.000000
    2        0.382427   1.000000
    3        2.087718   1.000000
    4        2.087718   1.000000
    5        3.629565   0.000000
    6        6.333524   0.000000
    7        6.333524   0.000000
    8        6.363127   0.000000

  0.1600000E+00  0.3885781E-15  0.3885781E-15  0.5120000E-03
    1       -9.770507   1.000000
    2       -0.294774   1.000000
    3        1.962684   1.000000
    4        1.962684   1.000000
    5        3.724591   0.000000
    6        6.512722   0.000000
    7        6.512722   0.000000
    8        6.747386   0.000000

  0.2000000E+00  0.3469447E-15  0.3469447E-15  0.5120000E-03
    1       -9.633864   1.000000
    2       -0.955660   1.000000
    3        1.829481   1.000000
    4        1.829481   1.000000
    5        3.700262   0.000000
    6        6.685101   0.000000
    7        6.685101   0.000000
    8        7.257599   0.000000

  0.2400000E+00  0.3608225E-15  0.3608225E-15  0.5120000E-03
    1       -9.473500   1.000000
    2       -1.588314   1.000000
    3        1.698088   1.000000
    4        1.698088   1.000000
    5        3.615973   0.000000
    6        6.824448   0.000000
    7        6.824448   0.000000
    8        7.844018   0.000000

  0.2800000E+00  0.3608225E-15  0.3608225E-15  0.5120000E-03
    1       -9.294790   1.000000
    2       -2.181148   1.000000
    3        1.575907   1.000000
    4        1.575907   1.000000
    5        3.511000   0.000000
    6        6.915488   0.000000
    7        6.915488   0.000000
    8        8.466004   0.000000

  0.3200000E+00  0.3053113E-15  0.3053113E-15  0.5120000E-03
    1       -9.105709   1.000000
    2       -2.721437   1.000000
    3        1.468203   1.000000
    4        1.468203   1.000000
    5        3.407180   0.000000
    6        6.958374   0.000000
    7        6.958374   0.000000
    8        9.079403   0.000000

  0.3600000E+00  0.3885781E-15  0.3885781E-15  0.5120000E-03
    1       -8.917775   1.000000
    2       -3.194119   1.000000
    3        1.378623   1.000000
    4        1.378623   1.000000
    5        3.316198   0.000000
    6        6.965493   0.000000
    7        6.965493   0.000000
    8        9.597194   0.000000

  0.4000000E+00  0.4163336E-15  0.4163336E-15  0.5120000E-03
    1       -8.747096   1.000000
    2       -3.580462   1.000000
    3        1.309640   1.000000
    4        1.309640   1.000000
    5        3.244353   0.000000
    6        6.953551   0.000000
    7        6.953551   0.000000
    8        9.883523   0.000000

  0.4400000E+00  0.3885781E-15  0.3885781E-15  0.5120000E-03
    1       -8.614148   1.000000
    2       -3.858154   1.000000
    3        1.262859   1.000000
    4        1.262859   1.000000
    5        3.195033   0.000000
    6        6.937251   0.000000
    7        6.937251   0.000000
    8        9.963993   0.000000

  0.4800000E+00  0.3885781E-15  0.3885781E-15  0.5120000E-03
    1       -8.540367   1.000000
    2       -4.004591   1.000000
    3        1.239243   1.000000
    4        1.239243   1.000000
    5        3.169997   0.000000
    6        6.926623   0.000000
    7        6.926623   0.000000
    8        9.974850   0.000000

  0.4000000E-01  0.4000000E-01  0.3742002E-15  0.3840000E-03
    1      -10.002209   1.000000
    2        1.668074   1.000000
    3        2.211285   1.000000
    4        2.211285   1.000000
    5        3.052548   0.000000
    6        5.943333   0.000000
    7        6.138360   0.000000
    8        6.138361   0.000000

  0.8000000E-01  0.4000000E-01  0.3747003E-15  0.1536000E-02
    1       -9.964602   1.000000
    2        1.170745   1.000000
    3        2.118957   1.000000
    4        2.157882   1.000000
    5        3.423027   0.000000
    6        5.898101   0.000000
    7        6.272152   0.000000
    8        6.273060   0.000000

  0.1200000E+00  0.4000000E-01  0.3747003E-15  0.1536000E-02
    1       -9.895451   1.000000
    2        0.545350   1.000000
    3        1.998378   1.000000
    4        2.086119   1.000000
    5        3.721267   0.000000
    6        5.950610   0.000000
    7        6.451387   0.000000
    8        6.486266   0.000000

  0.1600000E+00  0.4000000E-01  0.3747003E-15  0.1536000E-02
    1       -9.796005   1.000000
    2       -0.109215   1.000000
    3        1.863325   1.000000
    4        1.979317   1.000000
    5        3.867575   0.000000
    6        6.107656   0.000000
    7        6.649521   0.000000
    8        6.794687   0.000000

  0.2000000E+00  0.4000000E-01  0.3885781E-15  0.1536000E-02
    1       -9.668335   1.000000
    2       -0.762059   1.000000
    3        1.725647   1.000000
    4        1.849034   1.000000
    5        3.880178   0.000000
    6        6.321584   0.000000
    7        6.837509   0.000000
    8        7.200776   0.000000

  0.2400000E+00  0.4000000E-01  0.3469447E-15  0.1536000E-02
    1       -9.515631   1.000000
    2       -1.395693   1.000000
    3        1.594484   1.000000
    4        1.708617   1.000000
    5        3.815180   0.000000
    6        6.525564   0.000000
    7        6.988603   0.000000
    8        7.689677   0.000000

  0.2800000E+00  0.4000000E-01  0.3608225E-15  0.1536000E-02
    1       -9.342603   1.000000
    2       -1.996393   1.000000
    3        1.476452   1.000000
    4        1.568899   1.000000
    5        3.718012   0.000000
    6        6.679310   0.000000
    7        7.085510   0.000000
    8        8.234283   0.000000

  0.3200000E+00  0.4000000E-01  0.3608225E-15  0.1536000E-02
    1       -9.156256   1.000000
    2       -2.550869   1.000000
    3        1.376150   1.000000
    4        1.437829   1.000000
    5        3.615258   0.000000
    6        6.773559   0.000000
    7        7.126125   0.000000
    8        8.801737   0.000000

  0.3600000E+00  0.4000000E-01  0.3608225E-15  0.1536000E-02
    1       -8.966800   1.000000
    2       -3.044395   1.000000
    3        1.296680   1.000000
    4        1.321020   1.000000
    5        3.521260   0.000000
    6        6.819854   0.000000
    7        7.122069   0.000000
    8        9.341525   0.000000

  0.4000000E+00  0.4000000E-01  0.3885781E-15  0.1536000E-02
    1       -8.788708   1.000000
    2       -3.459221   1.000000
    3        1.222390   1.000000
    4        1.240011   1.000000
    5        3.443770   0.000000
    6        6.837997   0.000000
    7        7.091032   0.000000
    8        9.756831   0.000000

  0.4400000E+00  0.4000000E-01  0.4163336E-15  0.1536000E-02
    1       -8.641137   1.000000
    2       -3.773909   1.000000
    3        1.144671   1.000000
    4        1.207264   1.000000
    5        3.387020   0.000000
    6        6.846455   0.000000
    7        7.049638   0.000000
    8        9.963316   0.000000

  0.4800000E+00  0.4000000E-01  0.3885781E-15  0.1536000E-02
    1       -8.545773   1.000000
    2       -3.965245   1.000000
    3        1.089770   1.000000
    4        1.198901   1.000000
    5        3.353307   0.000000
    6        6.858294   0.000000
    7        7.010027   0.000000
    8       10.027768   0.000000

 -0.4800000E+00  0.4000000E-01  0.3885781E-15  0.1536000E-02
    1       -8.520467   1.000000
    2       -4.014573   1.000000
    3        1.058989   1.000000
    4        1.214850   1.000000
    5        3.343746   0.000000
    6        6.880635   0.000000
    7        6.979163   0.000000
    8       10.040350   0.000000

 -0.4400000E+00  0.4000000E-01  0.4163336E-15  0.1536000E-02
    1       -8.570546   1.000000
    2       -3.916340   1.000000
    3        1.053147   1.000000
    4        1.254545   1.000000
    5        3.358630   0.000000
    6        6.915106   0.000000
    7        6.958964   0.000000
    8       10.023512   0.000000

 -0.4000000E+00  0.4000000E-01  0.3885781E-15  0.1536000E-02
    1       -8.685712   1.000000
    2       -3.681290   1.000000
    3        1.072638   1.000000
    4        1.316934   1.000000
    5        3.397491   0.000000
    6        6.946426   0.000000
    7        6.958034   0.000000
    8        9.934546   0.000000

 -0.3600000E+00  0.4000000E-01  0.3885781E-15  0.1536000E-02
    1       -8.845846   1.000000
    2       -3.330580   1.000000
    3        1.117414   1.000000
    4        1.400416   1.000000
    5        3.458939   0.000000
    6        6.933530   0.000000
    7        7.000015   0.000000
    8        9.666289   0.000000

 -0.3200000E+00  0.4000000E-01  0.3608225E-15  0.1536000E-02
    1       -9.029643   1.000000
    2       -2.887322   1.000000
    3        1.186923   1.000000
    4        1.502700   1.000000
    5        3.540161   0.000000
    6        6.907537   0.000000
    7        7.025122   0.000000
    8        9.191345   0.000000

 -0.2800000E+00  0.4000000E-01  0.3608225E-15  0.1536000E-02
    1       -9.219433   1.000000
    2       -2.371829   1.000000
    3        1.279970   1.000000
    4        1.620553   1.000000
    5        3.635900   0.000000
    6        6.853159   0.000000
    7        7.010734   0.000000
    8        8.623803   0.000000

 -0.2400000E+00  0.4000000E-01  0.3608225E-15  0.1536000E-02
    1       -9.402288   1.000000
    2       -1.800784   1.000000
    3        1.394515   1.000000
    4        1.749487   1.000000
    5        3.736404   0.000000
    6        6.758287   0.000000
    7        6.930056   0.000000
    8        8.055151   0.000000

 -0.2000000E+00  0.4000000E-01  0.3608225E-15  0.1536000E-02
    1       -9.569173   1.000000
    2       -1.188466   1.000000
    3        1.527401   1.000000
    4        1.883265   1.000000
    5        3.823438   0.000000
    6        6.621929   0.000000
    7        6.760474   0.000000
    8        7.539913   0.000000

 -0.1600000E+00  0.4000000E-01  0.3469447E-15  0.1536000E-02
    1       -9.713951   1.000000
    2       -0.548488   1.000000
    3        1.674027   1.000000
    4        2.013406   1.000000
    5        3.863750   0.000000
    6        6.458461   0.000000
    7        6.508138   0.000000
    8        7.113930   0.000000

 -0.1200000E+00  0.4000000E-01  0.3885781E-15  0.1536000E-02
    1       -9.832484   1.000000
    2        0.103680   1.000000
    3        1.828152   1.000000
    4        2.128875   1.000000
    5        3.804948   0.000000
    6        6.246987   0.000000
    7        6.294001   0.000000
    8        6.771772   0.000000

 -0.8000000E-01  0.4000000E-01  0.3747003E-15  0.1536000E-02
    1       -9.921992   1.000000
    2        0.745631   1.000000
    3        1.982687   1.000000
    4        2.216653   1.000000
    5        3.596972   0.000000
    6        6.076791   0.000000
    7        6.158487   0.000000
    8        6.485338   0.000000

 -0.4000000E-01  0.4000000E-01  0.3677614E-15  0.7680000E-03
    1       -9.980719   1.000000
    2        1.331088   1.000000
    3        2.133817   1.000000
    4        2.263959   1.000000
    5        3.251442   0.000000
    6        6.026140   0.000000
    7        6.078296   0.000000
    8        6.247201   0.000000

  0.8000000E-01  0.8000000E-01  0.3742002E-15  0.3840000E-03
    1       -9.937732   1.000000
    2        0.985018   1.000000
    3        2.008001   1.000000
    4        2.008001   1.000000
    5        3.713164   0.000000
    6        5.716733   0.000000
    7        6.431299   0.000000
    8        6.431299   0.000000

  0.1200000E+00  0.8000000E-01  0.3747003E-15  0.1536000E-02
    1       -9.879186   1.000000
    2        0.538658   1.000000
    3        1.873436   1.000000
    4        1.904026   1.000000
    5        4.009623   0.000000
    6        5.637120   0.000000
    7        6.633780   0.000000
    8        6.649533   0.000000

  0.1600000E+00  0.8000000E-01  0.3747003E-15  0.1536000E-02
    1       -9.789984   1.000000
    2       -0.027812   1.000000
    3        1.729005   1.000000
    4        1.798579   1.000000
    5        4.202878   0.000000
    6        5.681120   0.000000
    7        6.853821   0.000000
    8        6.936650   0.000000

  0.2000000E+00  0.8000000E-01  0.3747003E-15  0.1536000E-02
    1       -9.671925   1.000000
    2       -0.633985   1.000000
    3        1.586051   1.000000
    4        1.666492   1.000000
    5        4.263466   0.000000
    6        5.847852   0.000000
    7        7.063082   0.000000
    8        7.274137   0.000000

  0.2400000E+00  0.8000000E-01  0.3747003E-15  0.1536000E-02
    1       -9.527795   1.000000
    2       -1.243097   1.000000
    3        1.453134   1.000000
    4        1.514072   1.000000
    5        4.227195   0.000000
    6        6.084308   0.000000
    7        7.234070   0.000000
    8        7.633550   0.000000

  0.2800000E+00  0.8000000E-01  0.3469447E-15  0.1536000E-02
    1       -9.361735   1.000000
    2       -1.833470   1.000000
    3        1.336407   1.000000
    4        1.354072   1.000000
    5        4.143740   0.000000
    6        6.317786   0.000000
    7        7.346684   0.000000
    8        8.006688   0.000000

  0.3200000E+00  0.8000000E-01  0.3608225E-15  0.1536000E-02
    1       -9.179905   1.000000
    2       -2.388343   1.000000
    3        1.197497   1.000000
    4        1.240113   1.000000
    5        4.045582   0.000000
    6        6.495148   0.000000
    7        7.395232   0.000000
    8        8.412422   0.000000

  0.3600000E+00  0.8000000E-01  0.3608225E-15  0.1536000E-02
    1       -8.991318   1.000000
    2       -2.891662   1.000000
    3        1.052373   1.000000
    4        1.167061   1.000000
    5        3.950386   0.000000
    6        6.602491   0.000000
    7        7.389300   0.000000
    8        8.863702   0.000000

  0.4000000E+00  0.8000000E-01  0.3330669E-15  0.1536000E-02
    1       -8.808864   1.000000
    2       -3.325701   1.000000
    3        0.924268   1.000000
    4        1.118973   1.000000
    5        3.867758   0.000000
    6        6.658651   0.000000
    7        7.346923   0.000000
    8        9.335308   0.000000

  0.4400000E+00  0.8000000E-01  0.3608225E-15  0.1536000E-02
    1       -8.650108   1.000000
    2       -3.669593   1.000000
    3        0.817048   1.000000
    4        1.096720   1.000000
    5        3.803108   0.000000
    6        6.690858   0.000000
    7        7.286498   0.000000
    8        9.755955   0.000000

  0.4800000E+00  0.8000000E-01  0.3885781E-15  0.1536000E-02
    1       -8.536130   1.000000
    2       -3.900035   1.000000
    3        0.733455   1.000000
    4        1.100477   1.000000
    5        3.759513   0.000000
    6        6.719991   0.000000
    7        7.222309   0.000000
    8       10.035138   0.000000

 -0.4800000E+00  0.8000000E-01  0.3885781E-15  0.1536000E-02
    1       -8.486775   1.000000
    2       -3.995943   1.000000
    3        0.675508   1.000000
    4        1.129824   1.000000
    5        3.738628   0.000000
    6        6.758206   0.000000
    7        7.163312   0.000000
    8       10.154582   0.000000

 -0.4400000E+00  0.8000000E-01  0.3885781E-15  0.1536000E-02
    1       -8.512118   1.000000
    2       -3.946738   1.000000
    3        0.644716   1.000000
    4        1.183772   1.000000
    5        3.741096   0.000000
    6        6.810320   0.000000
    7        7.113241   0.000000
    8       10.149251   0.000000

 -0.4000000E+00  0.8000000E-01  0.3885781E-15  0.1536000E-02
    1       -8.606862   1.000000
    2       -3.758071   1.000000
    3        0.642224   1.000000
    4        1.260761   1.000000
    5        3.766685   0.000000
    6        6.874897   0.000000
    7        7.070841   0.000000
    8       10.000724   0.000000

 -0.3600000E+00  0.8000000E-01  0.3885781E-15  0.1536000E-02
    1       -8.753369   1.000000
    2       -3.448685   1.000000
    3        0.668883   1.000000
    4        1.358567   1.000000
    5        3.814152   0.000000
    6        6.943862   0.000000
    7        7.029858   0.000000
    8        9.659813   0.000000

 -0.3200000E+00  0.8000000E-01  0.4163336E-15  0.1536000E-02
    1       -8.930199   1.000000
    2       -3.042126   1.000000
    3        0.725292   1.000000
    4        1.474149   1.000000
    5        3.880820   0.000000
    6        6.979315   0.000000
    7        7.000171   0.000000
    8        9.173993   0.000000

 -0.2800000E+00  0.8000000E-01  0.3608225E-15  0.1536000E-02
    1       -9.118393   1.000000
    2       -2.560666   1.000000
    3        0.811828   1.000000
    4        1.603408   1.000000
    5        3.961607   0.000000
    6        6.905484   0.000000
    7        7.013236   0.000000
    8        8.652168   0.000000

 -0.2400000E+00  0.8000000E-01  0.3053113E-15  0.1536000E-02
    1       -9.303564   1.000000
    2       -2.023697   1.000000
    3        0.928717   1.000000
    4        1.740818   1.000000
    5        4.047045   0.000000
    6        6.797307   0.000000
    7        6.936284   0.000000
    8        8.179185   0.000000

 -0.2000000E+00  0.8000000E-01  0.3608225E-15  0.1536000E-02
    1       -9.475567   1.000000
    2       -1.448956   1.000000
    3        1.076190   1.000000
    4        1.878954   1.000000
    5        4.119417   0.000000
    6        6.654350   0.000000
    7        6.733679   0.000000
    8        7.800622   0.000000

 -0.1600000E+00  0.8000000E-01  0.3608225E-15  0.1536000E-02
    1       -9.627402   1.000000
    2       -0.855202   1.000000
    3        1.254834   1.000000
    4        2.008059   1.000000
    5        4.146583   0.000000
    6        6.452317   0.000000
    7        6.491463   0.000000
    8        7.486459   0.000000

 -0.1200000E+00  0.8000000E-01  0.3608225E-15  0.1536000E-02
    1       -9.754357   1.000000
    2       -0.266143   1.000000
    3        1.466202   1.000000
    4        2.116007   1.000000
    5        4.080530   0.000000
    6        6.206282   0.000000
    7        6.335320   0.000000
    8        7.171126   0.000000

 -0.8000000E-01  0.8000000E-01  0.3885781E-15  0.7680000E-03
    1       -9.853252   1.000000
    2        0.283842   1.000000
    3        1.712228   1.000000
    4        2.189416   1.000000
    5        3.885707   0.000000
    6        6.079673   0.000000
    7        6.215940   0.000000
    8        6.831633   0.000000

  0.1200000E+00  0.1200000E+00  0.3742002E-15  0.3840000E-03
    1       -9.831267   1.000000
    2        0.311233   1.000000
    3        1.727771   1.000000
    4        1.727771   1.000000
    5        4.308590   0.000000
    6        5.439607   0.000000
    7        6.859842   0.000000
    8        6.859842   0.000000

  0.1600000E+00  0.1200000E+00  0.3747003E-15  0.1536000E-02
    1       -9.752540   1.000000
    2       -0.100709   1.000000
    3        1.575114   1.000000
    4        1.588401   1.000000
    5        4.525428   0.000000
    6        5.373486   0.000000
    7        7.104645   0.000000
    8        7.126426   0.000000

  0.2000000E+00  0.1200000E+00  0.3747003E-15  0.1536000E-02
    1       -9.644540   1.000000
    2       -0.612156   1.000000
    3        1.426519   1.000000
    4        1.443272   1.000000
    5        4.629995   0.000000
    6        5.446553   0.000000
    7        7.340552   0.000000
    8        7.415584   0.000000

  0.2400000E+00  0.1200000E+00  0.3816392E-15  0.1536000E-02
    1       -9.509714   1.000000
    2       -1.163101   1.000000
    3        1.276002   1.000000
    4        1.290276   1.000000
    5        4.630386   0.000000
    6        5.645467   0.000000
    7        7.539319   0.000000
    8        7.666152   0.000000

  0.2800000E+00  0.1200000E+00  0.3747003E-15  0.1536000E-02
    1       -9.351707   1.000000
    2       -1.718533   1.000000
    3        1.094034   1.000000
    4        1.172331   1.000000
    5        4.568734   0.000000
    6        5.912570   0.000000
    7        7.677606   0.000000
    8        7.857791   0.000000

  0.3200000E+00  0.1200000E+00  0.3608225E-15  0.1536000E-02
    1       -9.175952   1.000000
    2       -2.254968   1.000000
    3        0.910086   1.000000
    4        1.076803   1.000000
    5        4.481972   0.000000
    6        6.176593   0.000000
    7        7.744993   0.000000
    8        8.049709   0.000000

  0.3600000E+00  0.1200000E+00  0.3608225E-15  0.1536000E-02
    1       -8.990407   1.000000
    2       -2.753068   1.000000
    3        0.734808   1.000000
    4        1.006415   1.000000
    5        4.391357   0.000000
    6        6.378170   0.000000
    7        7.747576   0.000000
    8        8.325238   0.000000

  0.4000000E+00  0.1200000E+00  0.3608225E-15  0.1536000E-02
    1       -8.806500   1.000000
    2       -3.193826   1.000000
    3        0.575753   1.000000
    4        0.962814   1.000000
    5        4.308836   0.000000
    6        6.499426   0.000000
    7        7.702845   0.000000
    8        8.716519   0.000000

  0.4400000E+00  0.1200000E+00  0.3330669E-15  0.1536000E-02
    1       -8.640111   1.000000
    2       -3.556306   1.000000
    3        0.438117   1.000000
    4        0.946795   1.000000
    5        4.241386   0.000000
    6        6.565592   0.000000
    7        7.630780   0.000000
    8        9.190024   0.000000

  0.4800000E+00  0.1200000E+00  0.3608225E-15  0.1536000E-02
    1       -8.511121   1.000000
    2       -3.817208   1.000000
    3        0.325546   1.000000
    4        0.958435   1.000000
    5        4.193082   0.000000
    6        6.610401   0.000000
    7        7.547881   0.000000
    8        9.671868   0.000000

 -0.4800000E+00  0.1200000E+00  0.3885781E-15  0.1536000E-02
    1       -8.440162   1.000000
    2       -3.953928   1.000000
    3        0.240762   1.000000
    4        0.997151   1.000000
    5        4.166145   0.000000
    6        6.656575   0.000000
    7        7.465146   0.000000
    8       10.050004   0.000000

 -0.4400000E+00  0.1200000E+00  0.3885781E-15  0.1536000E-02
    1       -8.441029   1.000000
    2       -3.951762   1.000000
    3        0.185961   1.000000
    4        1.061727   1.000000
    5        4.161421   0.000000
    6        6.715427   0.000000
    7        7.388017   0.000000
    8       10.192703   0.000000

 -0.4000000E+00  0.1200000E+00  0.3885781E-15  0.1536000E-02
    1       -8.513517   1.000000
    2       -3.811124   1.000000
    3        0.163073   1.000000
    4        1.150259   1.000000
    5        4.178601   0.000000
    6        6.789850   0.000000
    7        7.316697   0.000000
    8       10.031891   0.000000

 -0.3600000E+00  0.1200000E+00  0.3885781E-15  0.1536000E-02
    1       -8.643550   1.000000
    2       -3.547492   1.000000
    3        0.173968   1.000000
    4        1.260066   1.000000
    5        4.216126   0.000000
    6        6.875233   0.000000
    7        7.246260   0.000000
    8        9.621780   0.000000

 -0.3200000E+00  0.1200000E+00  0.3885781E-15  0.1536000E-02
    1       -8.810455   1.000000
    2       -3.184270   1.000000
    3        0.220690   1.000000
    4        1.387502   1.000000
    5        4.270698   0.000000
    6        6.956973   0.000000
    7        7.167029   0.000000
    8        9.099055   0.000000

 -0.2800000E+00  0.1200000E+00  0.4163336E-15  0.1536000E-02
    1       -8.994451   1.000000
    2       -2.745947   1.000000
    3        0.305753   1.000000
    4        1.527660   1.000000
    5        4.336178   0.000000
    6        7.002259   0.000000
    7        7.066614   0.000000
    8        8.581228   0.000000

 -0.2400000E+00  0.1200000E+00  0.3885781E-15  0.1536000E-02
    1       -9.179791   1.000000
    2       -2.255591   1.000000
    3        0.432603   1.000000
    4        1.674009   1.000000
    5        4.401152   0.000000
    6        6.935522   0.000000
    7        6.948619   0.000000
    8        8.163753   0.000000

 -0.2000000E+00  0.1200000E+00  0.3330669E-15  0.1536000E-02
    1       -9.355160   1.000000
    2       -1.735918   1.000000
    3        0.606261   1.000000
    4        1.817951   1.000000
    5        4.444388   0.000000
    6        6.746894   0.000000
    7        6.775278   0.000000
    8        7.902825   0.000000

 -0.1600000E+00  0.1200000E+00  0.3608225E-15  0.1536000E-02
    1       -9.512673   1.000000
    2       -1.211861   1.000000
    3        0.833628   1.000000
    4        1.948451   1.000000
    5        4.429220   0.000000
    6        6.477190   0.000000
    7        6.602776   0.000000
    8        7.720619   0.000000

 -0.1200000E+00  0.1200000E+00  0.3608225E-15  0.7680000E-03
    1       -9.646945   1.000000
    2       -0.712112   1.000000
    3        1.121464   1.000000
    4        2.052345   1.000000
    5        4.310923   0.000000
    6        6.275914   0.000000
    7        6.446101   0.000000
    8        7.493546   0.000000

  0.1600000E+00  0.1600000E+00  0.3742002E-15  0.3840000E-03
    1       -9.684326   1.000000
    2       -0.348668   1.000000
    3        1.415493   1.000000
    4        1.415493   1.000000
    5        4.689932   0.000000
    6        5.263865   0.000000
    7        7.377682   0.000000
    8        7.377682   0.000000

  0.2000000E+00  0.1600000E+00  0.3747003E-15  0.1536000E-02
    1       -9.586666   1.000000
    2       -0.732297   1.000000
    3        1.256620   1.000000
    4        1.261217   1.000000
    5        4.727786   0.000000
    6        5.311877   0.000000
    7        7.645956   0.000000
    8        7.648926   0.000000

  0.2400000E+00  0.1600000E+00  0.3677614E-15  0.1536000E-02
    1       -9.461689   1.000000
    2       -1.192776   1.000000
    3        1.078414   1.000000
    4        1.120556   1.000000
    5        4.753746   0.000000
    6        5.421855   0.000000
    7        7.834659   0.000000
    8        7.880607   0.000000

  0.2800000E+00  0.1600000E+00  0.3816392E-15  0.1536000E-02
    1       -9.312633   1.000000
    2       -1.685640   1.000000
    3        0.876556   1.000000
    4        0.999448   1.000000
    5        4.758181   0.000000
    6        5.611589   0.000000
    7        7.890516   0.000000
    8        8.055015   0.000000

  0.3200000E+00  0.1600000E+00  0.4024558E-15  0.1536000E-02
    1       -9.144322   1.000000
    2       -2.180475   1.000000
    3        0.663850   1.000000
    4        0.902045   1.000000
    5        4.721424   0.000000
    6        5.883629   0.000000
    7        7.896831   0.000000
    8        8.153031   0.000000

  0.3600000E+00  0.1600000E+00  0.3469447E-15  0.1536000E-02
    1       -8.963801   1.000000
    2       -2.653919   1.000000
    3        0.454827   1.000000
    4        0.831118   1.000000
    5        4.660228   0.000000
    6        6.178652   0.000000
    7        7.958822   0.000000
    8        8.175605   0.000000

  0.4000000E+00  0.1600000E+00  0.3608225E-15  0.1536000E-02
    1       -8.781197   1.000000
    2       -3.084854   1.000000
    3        0.260482   1.000000
    4        0.788360   1.000000
    5        4.595174   0.000000
    6        6.418392   0.000000
    7        8.138454   0.000000
    8        8.160703   0.000000

  0.4400000E+00  0.1600000E+00  0.3608225E-15  0.1536000E-02
    1       -8.610755   1.000000
    2       -3.451647   1.000000
    3        0.088225   1.000000
    4        0.774603   1.000000
    5        4.539370   0.000000
    6        6.564090   0.000000
    7        8.062822   0.000000
    8        8.531882   0.000000

  0.4800000E+00  0.1600000E+00  0.3053113E-15  0.1536000E-02
    1       -8.470813   1.000000
    2       -3.730872   1.000000
    3       -0.056902   1.000000
    4        0.789938   1.000000
    5        4.500076   0.000000
    6        6.641917   0.000000
    7        7.967577   0.000000
    8        9.025678   0.000000

 -0.4800000E+00  0.1600000E+00  0.4440892E-15  0.1536000E-02
    1       -8.381752   1.000000
    2       -3.899072   1.000000
    3       -0.171231   1.000000
    4        0.833767   1.000000
    5        4.480856   0.000000
    6        6.694520   0.000000
    7        7.865949   0.000000
    8        9.553769   0.000000

 -0.4400000E+00  0.1600000E+00  0.3885781E-15  0.1536000E-02
    1       -8.359812   1.000000
    2       -3.938530   1.000000
    3       -0.251763   1.000000
    4        0.904790   1.000000
    5        4.482816   0.000000
    6        6.748944   0.000000
    7        7.765047   0.000000
    8        9.962590   0.000000

 -0.4000000E+00  0.1600000E+00  0.3885781E-15  0.1536000E-02
    1       -8.409389   1.000000
    2       -3.844910   1.000000
    3       -0.295648   1.000000
    4        1.000965   1.000000
    5        4.505158   0.000000
    6        6.817426   0.000000
    7        7.666232   0.000000
    8        9.972697   0.000000

 -0.3600000E+00  0.1600000E+00  0.3885781E-15  0.1536000E-02
    1       -8.520632   1.000000
    2       -3.629899   1.000000
    3       -0.299758   1.000000
    4        1.119346   1.000000
    5        4.545247   0.000000
    6        6.902083   0.000000
    7        7.565340   0.000000
    8        9.566752   0.000000

 -0.3200000E+00  0.1600000E+00  0.4163336E-15  0.1536000E-02
    1       -8.674705   1.000000
    2       -3.316189   1.000000
    3       -0.260208   1.000000
    4        1.255885   1.000000
    5        4.598042   0.000000
    6        6.994871   0.000000
    7        7.453284   0.000000
    8        9.014766   0.000000

 -0.2800000E+00  0.1600000E+00  0.3885781E-15  0.1536000E-02
    1       -8.851600   1.000000
    2       -2.930496   1.000000
    3       -0.171715   1.000000
    4        1.405129   1.000000
    5        4.654634   0.000000
    6        7.068940   0.000000
    7        7.318607   0.000000
    8        8.473740   0.000000

 -0.2400000E+00  0.1600000E+00  0.4163336E-15  0.1536000E-02
    1       -9.034579   1.000000
    2       -2.500089   1.000000
    3       -0.026921   1.000000
    4        1.559785   1.000000
    5        4.698986   0.000000
    6        7.053591   0.000000
    7        7.153889   0.000000
    8        8.060690   0.000000

 -0.2000000E+00  0.1600000E+00  0.3608225E-15  0.1536000E-02
    1       -9.211144   1.000000
    2       -2.052526   1.000000
    3        0.183805   1.000000
    4        1.710280   1.000000
    5        4.702639   0.000000
    6        6.869829   0.000000
    7        6.964249   0.000000
    8        7.875815   0.000000

 -0.1600000E+00  0.1600000E+00  0.3330669E-15  0.7680000E-03
    1       -9.372541   1.000000
    2       -1.615334   1.000000
    3        0.470047   1.000000
    4        1.844534   1.000000
    5        4.623243   0.000000
    6        6.626644   0.000000
    7        6.770432   0.000000
    8        7.819769   0.000000

  0.2000000E+00  0.2000000E+00  0.3742002E-15  0.3840000E-03
    1       -9.499406   1.000000
    2       -0.991304   1.000000
    3        1.101454   1.000000
    4        1.101454   1.000000
    5        4.608732   0.000000
    6        5.387957   0.000000
    7        7.952856   0.000000
    8        7.952857   0.000000

  0.2400000E+00  0.2000000E+00  0.3747003E-15  0.1536000E-02
    1       -9.384640   1.000000
    2       -1.349142   1.000000
    3        0.934781   1.000000
    4        0.955703   1.000000
    5        4.554189   0.000000
    6        5.444207   0.000000
    7        8.173013   0.000000
    8        8.232078   0.000000

  0.2800000E+00  0.2000000E+00  0.3747003E-15  0.1536000E-02
    1       -9.245259   1.000000
    2       -1.761682   1.000000
    3        0.732210   1.000000
    4        0.830074   1.000000
    5        4.590495   0.000000
    6        5.502503   0.000000
    7        8.185886   0.000000
    8        8.453988   0.000000

  0.3200000E+00  0.2000000E+00  0.3816392E-15  0.1536000E-02
    1       -9.085595   1.000000
    2       -2.195231   1.000000
    3        0.500550   1.000000
    4        0.728847   1.000000
    5        4.645659   0.000000
    6        5.645374   0.000000
    7        8.095207   0.000000
    8        8.595961   0.000000

  0.3600000E+00  0.2000000E+00  0.3747003E-15  0.1536000E-02
    1       -8.911912   1.000000
    2       -2.624220   1.000000
    3        0.259291   1.000000
    4        0.654930   1.000000
    5        4.659921   0.000000
    6        5.913616   0.000000
    7        8.007920   0.000000
    8        8.651808   0.000000

  0.4000000E+00  0.2000000E+00  0.3608225E-15  0.1536000E-02
    1       -8.733250   1.000000
    2       -3.026451   1.000000
    3        0.026277   1.000000
    4        0.610137   1.000000
    5        4.639292   0.000000
    6        6.259997   0.000000
    7        7.988014   0.000000
    8        8.633619   0.000000

  0.4400000E+00  0.2000000E+00  0.3608225E-15  0.1536000E-02
    1       -8.562321   1.000000
    2       -3.380008   1.000000
    3       -0.186010   1.000000
    4        0.595402   1.000000
    5        4.610923   0.000000
    6        6.587604   0.000000
    7        8.105161   0.000000
    8        8.563263   0.000000

  0.4800000E+00  0.2000000E+00  0.3608225E-15  0.1536000E-02
    1       -8.415808   1.000000
    2       -3.661721   1.000000
    3       -0.369411   1.000000
    4        0.610905   1.000000
    5        4.592518   0.000000
    6        6.807692   0.000000
    7        8.421106   0.000000
    8        8.462230   0.000000

 -0.4800000E+00  0.2000000E+00  0.2775558E-15  0.1536000E-02
    1       -8.313102   1.000000
    2       -3.848050   1.000000
    3       -0.518359   1.000000
    4        0.656115   1.000000
    5        4.592467   0.000000
    6        6.921049   0.000000
    7        8.346282   0.000000
    8        8.905735   0.000000

 -0.4400000E+00  0.2000000E+00  0.3330669E-15  0.1536000E-02
    1       -8.271521   1.000000
    2       -3.919605   1.000000
    3       -0.628491   1.000000
    4        0.729765   1.000000
    5        4.613577   0.000000
    6        6.986119   0.000000
    7        8.224295   0.000000
    8        9.439319   0.000000

 -0.4000000E+00  0.2000000E+00  0.3885781E-15  0.1536000E-02
    1       -8.299052   1.000000
    2       -3.868430   1.000000
    3       -0.695656   1.000000
    4        0.829794   1.000000
    5        4.654975   0.000000
    6        7.044421   0.000000
    7        8.098452   0.000000
    8        9.757731   0.000000

 -0.3600000E+00  0.2000000E+00  0.3885781E-15  0.1536000E-02
    1       -8.390137   1.000000
    2       -3.702548   1.000000
    3       -0.715072   1.000000
    4        0.953191   1.000000
    5        4.712658   0.000000
    6        7.114439   0.000000
    7        7.964688   0.000000
    8        9.498411   0.000000

 -0.3200000E+00  0.2000000E+00  0.3885781E-15  0.1536000E-02
    1       -8.528735   1.000000
    2       -3.443448   1.000000
    3       -0.680524   1.000000
    4        1.095738   1.000000
    5        4.778895   0.000000
    6        7.200375   0.000000
    7        7.813681   0.000000
    8        8.945533   0.000000

 -0.2800000E+00  0.2000000E+00  0.3885781E-15  0.1536000E-02
    1       -8.695479   1.000000
    2       -3.119610   1.000000
    3       -0.583586   1.000000
    4        1.251686   1.000000
    5        4.840289   0.000000
    6        7.289972   0.000000
    7        7.634650   0.000000
    8        8.373402   0.000000

 -0.2400000E+00  0.2000000E+00  0.3885781E-15  0.1536000E-02
    1       -8.873101   1.000000
    2       -2.761526   1.000000
    3       -0.413517   1.000000
    4        1.413318   1.000000
    5        4.873819   0.000000
    6        7.313708   0.000000
    7        7.423499   0.000000
    8        7.931346   0.000000

 -0.2000000E+00  0.2000000E+00  0.4163336E-15  0.7680000E-03
    1       -9.048210   1.000000
    2       -2.398215   1.000000
    3       -0.159368   1.000000
    4        1.570462   1.000000
    5        4.842358   0.000000
    6        7.115001   0.000000
    7        7.191276   0.000000
    8        7.817019   0.000000

  0.2400000E+00  0.2400000E+00  0.3742002E-15  0.3840000E-03
    1       -9.280226   1.000000
    2       -1.612703   1.000000
    3        0.804558   1.000000
    4        0.804558   1.000000
    5        4.375927   0.000000
    6        5.443330   0.000000
    7        8.564645   0.000000
    8        8.564649   0.000000

  0.2800000E+00  0.2400000E+00  0.3747003E-15  0.1536000E-02
    1       -9.151079   1.000000
    2       -1.945114   1.000000
    3        0.638411   1.000000
    4        0.673529   1.000000
    5        4.327775   0.000000
    6        5.410677   0.000000
    7        8.695802   0.000000
    8        8.846313   0.000000

  0.3200000E+00  0.2400000E+00  0.3747003E-15  0.1536000E-02
    1       -9.001096   1.000000
    2       -2.311438   1.000000
    3        0.420042   1.000000
    4        0.567136   1.000000
    5        4.387282   0.000000
    6        5.418636   0.000000
    7        8.599811   0.000000
    8        9.047693   0.000000

  0.3600000E+00  0.2400000E+00  0.3747003E-15  0.1536000E-02
    1       -8.835932   1.000000
    2       -2.684980   1.000000
    3        0.165547   1.000000
    4        0.488473   1.000000
    5        4.470205   0.000000
    6        5.550055   0.000000
    7        8.464109   0.000000
    8        9.153115   0.000000

  0.4000000E+00  0.2400000E+00  0.3885781E-15  0.1536000E-02
    1       -8.663753   1.000000
    2       -3.043925   1.000000
    3       -0.099099   1.000000
    4        0.439519   1.000000
    5        4.510849   0.000000
    6        5.845472   0.000000
    7        8.346614   0.000000
    8        9.168012   0.000000

  0.4400000E+00  0.2400000E+00  0.3608225E-15  0.1536000E-02
    1       -8.495927   1.000000
    2       -3.367598   1.000000
    3       -0.352048   1.000000
    4        0.421363   1.000000
    5        4.517647   0.000000
    6        6.260764   0.000000
    7        8.277340   0.000000
    8        9.113468   0.000000

  0.4800000E+00  0.2400000E+00  0.3469447E-15  0.1536000E-02
    1       -8.347511   1.000000
    2       -3.634489   1.000000
    3       -0.578258   1.000000
    4        0.434310   1.000000
    5        4.520872   0.000000
    6        6.710808   0.000000
    7        8.299085   0.000000
    8        9.013704   0.000000

 -0.4800000E+00  0.2400000E+00  0.4440892E-15  0.1536000E-02
    1       -8.236455   1.000000
    2       -3.822485   1.000000
    3       -0.767667   1.000000
    4        0.477943   1.000000
    5        4.538371   0.000000
    6        7.086126   0.000000
    7        8.487780   0.000000
    8        8.887595   0.000000

 -0.4400000E+00  0.2400000E+00  0.4440892E-15  0.1536000E-02
    1       -8.179924   1.000000
    2       -3.912432   1.000000
    3       -0.912924   1.000000
    4        0.551097   1.000000
    5        4.577159   0.000000
    6        7.307540   0.000000
    7        8.745947   0.000000
    8        8.886502   0.000000

 -0.4000000E+00  0.2400000E+00  0.4440892E-15  0.1536000E-02
    1       -8.188095   1.000000
    2       -3.894706   1.000000
    3       -1.007482   1.000000
    4        0.651792   1.000000
    5        4.637857   0.000000
    6        7.418699   0.000000
    7        8.591426   0.000000
    8        9.352053   0.000000

 -0.3600000E+00  0.2400000E+00  0.3885781E-15  0.1536000E-02
    1       -8.259145   1.000000
    2       -3.774720   1.000000
    3       -1.044149   1.000000
    4        0.777069   1.000000
    5        4.716323   0.000000
    6        7.493066   0.000000
    7        8.419225   0.000000
    8        9.406761   0.000000

 -0.3200000E+00  0.2400000E+00  0.3885781E-15  0.1536000E-02
    1       -8.380313   1.000000
    2       -3.572490   1.000000
    3       -1.013942   1.000000
    4        0.922730   1.000000
    5        4.803135   0.000000
    6        7.567821   0.000000
    7        8.219181   0.000000
    8        8.914264   0.000000

 -0.2800000E+00  0.2400000E+00  0.4440892E-15  0.1536000E-02
    1       -8.533887   1.000000
    2       -3.316856   1.000000
    3       -0.905720   1.000000
    4        1.082982   1.000000
    5        4.880999   0.000000
    6        7.654554   0.000000
    7        7.982096   0.000000
    8        8.323904   0.000000

 -0.2400000E+00  0.2400000E+00  0.3885781E-15  0.7680000E-03
    1       -8.702762   1.000000
    2       -3.038257   1.000000
    3       -0.707902   1.000000
    4        1.249978   1.000000
    5        4.919867   0.000000
    6        7.675934   0.000000
    7        7.710250   0.000000
    8        7.868345   0.000000

  0.2800000E+00  0.2800000E+00  0.3742002E-15  0.3840000E-03
    1       -9.032475   1.000000
    2       -2.207061   1.000000
    3        0.536627   1.000000
    4        0.536627   1.000000
    5        4.158082   0.000000
    6        5.294124   0.000000
    7        9.199007   0.000000
    8        9.199010   0.000000

  0.3200000E+00  0.2800000E+00  0.3747003E-15  0.1536000E-02
    1       -8.893043   1.000000
    2       -2.512364   1.000000
    3        0.377158   1.000000
    4        0.424197   1.000000
    5        4.131135   0.000000
    6        5.201473   0.000000
    7        9.260434   0.000000
    8        9.476659   0.000000

  0.3600000E+00  0.2800000E+00  0.3747003E-15  0.1536000E-02
    1       -8.737993   1.000000
    2       -2.832177   1.000000
    3        0.151066   1.000000
    4        0.339583   1.000000
    5        4.211701   0.000000
    6        5.195829   0.000000
    7        9.132002   0.000000
    8        9.651834   0.000000

  0.4000000E+00  0.2800000E+00  0.3747003E-15  0.1536000E-02
    1       -8.574797   1.000000
    2       -3.144174   1.000000
    3       -0.117826   1.000000
    4        0.284976   1.000000
    5        4.305893   0.000000
    6        5.352964   0.000000
    7        8.989880   0.000000
    8        9.718564   0.000000

  0.4400000E+00  0.2800000E+00  0.3885781E-15  0.1536000E-02
    1       -8.413740   1.000000
    2       -3.429066   1.000000
    3       -0.397788   1.000000
    4        0.261630   1.000000
    5        4.354850   0.000000
    6        5.698663   0.000000
    7        8.865534   0.000000
    8        9.693756   0.000000

  0.4800000E+00  0.2800000E+00  0.3608225E-15  0.1536000E-02
    1       -8.268403   1.000000
    2       -3.667952   1.000000
    3       -0.662864   1.000000
    4        0.270008   1.000000
    5        4.379169   0.000000
    6        6.177744   0.000000
    7        8.775876   0.000000
    8        9.603863   0.000000

 -0.4800000E+00  0.2800000E+00  0.3330669E-15  0.1536000E-02
    1       -8.155060   1.000000
    2       -3.841861   1.000000
    3       -0.894591   1.000000
    4        0.309839   1.000000
    5        4.409116   0.000000
    6        6.719417   0.000000
    7        8.743815   0.000000
    8        9.471551   0.000000

 -0.4400000E+00  0.2800000E+00  0.4440892E-15  0.1536000E-02
    1       -8.089772   1.000000
    2       -3.934302   1.000000
    3       -1.079559   1.000000
    4        0.380100   1.000000
    5        4.458808   0.000000
    6        7.243468   0.000000
    7        8.815054   0.000000
    8        9.309918   0.000000

 -0.4000000E+00  0.2800000E+00  0.3330669E-15  0.1536000E-02
    1       -8.083324   1.000000
    2       -3.936814   1.000000
    3       -1.206668   1.000000
    4        0.478950   1.000000
    5        4.531808   0.000000
    6        7.639623   0.000000
    7        9.053909   0.000000
    8        9.121712   0.000000

 -0.3600000E+00  0.2800000E+00  0.3885781E-15  0.1536000E-02
    1       -8.136451   1.000000
    2       -3.854302   1.000000
    3       -1.264873   1.000000
    4        0.603566   1.000000
    5        4.625142   0.000000
    6        7.853855   0.000000
    7        8.900729   0.000000
    8        9.308052   0.000000

 -0.3200000E+00  0.2800000E+00  0.3885781E-15  0.1536000E-02
    1       -8.239569   1.000000
    2       -3.705597   1.000000
    3       -1.241955   1.000000
    4        0.749892   1.000000
    5        4.729474   0.000000
    6        7.949162   0.000000
    7        8.636692   0.000000
    8        8.989670   0.000000

 -0.2800000E+00  0.2800000E+00  0.3885781E-15  0.7680000E-03
    1       -8.377363   1.000000
    2       -3.517741   1.000000
    3       -1.125274   1.000000
    4        0.912272   1.000000
    5        4.826153   0.000000
    6        7.938131   0.000000
    7        8.325948   0.000000
    8        8.498902   0.000000

  0.3200000E+00  0.3200000E+00  0.3742002E-15  0.3840000E-03
    1       -8.764823   1.000000
    2       -2.765372   1.000000
    3        0.305246   1.000000
    4        0.305246   1.000000
    5        3.983854   0.000000
    6        5.022593   0.000000
    7        9.844452   0.000000
    8        9.844487   0.000000

  0.3600000E+00  0.3200000E+00  0.3747003E-15  0.1536000E-02
    1       -8.621385   1.000000
    2       -3.039129   1.000000
    3        0.157243   1.000000
    4        0.213923   1.000000
    5        3.981998   0.000000
    6        4.913692   0.000000
    7        9.876153   0.000000
    8       10.111825   0.000000

  0.4000000E+00  0.3200000E+00  0.3747003E-15  0.1536000E-02
    1       -8.469685   1.000000
    2       -3.309057   1.000000
    3       -0.069004   1.000000
    4        0.152645   1.000000
    5        4.079969   0.000000
    6        4.927628   0.000000
    7        9.742750   0.000000
    8       10.255173   0.000000

  0.4400000E+00  0.3200000E+00  0.3747003E-15  0.1536000E-02
    1       -8.319218   1.000000
    2       -3.555534   1.000000
    3       -0.342965   1.000000
    4        0.122869   1.000000
    5        4.173764   0.000000
    6        5.138141   0.000000
    7        9.601859   0.000000
    8       10.279852   0.000000

  0.4800000E+00  0.3200000E+00  0.3885781E-15  0.1536000E-02
    1       -8.182317   1.000000
    2       -3.761364   1.000000
    3       -0.627783   1.000000
    4        0.125236   1.000000
    5        4.223620   0.000000
    6        5.546003   0.000000
    7        9.476538   0.000000
    8       10.211695   0.000000

 -0.4800000E+00  0.3200000E+00  0.3330669E-15  0.1536000E-02
    1       -8.073498   1.000000
    2       -3.910883   1.000000
    3       -0.893321   1.000000
    4        0.159634   1.000000
    5        4.263619   0.000000
    6        6.081349   0.000000
    7        9.379069   0.000000
    8       10.077513   0.000000

 -0.4400000E+00  0.3200000E+00  0.3330669E-15  0.1536000E-02
    1       -8.007044   1.000000
    2       -3.991781   1.000000
    3       -1.116818   1.000000
    4        0.225208   1.000000
    5        4.319171   0.000000
    6        6.682530   0.000000
    7        9.324013   0.000000
    8        9.893286   0.000000

 -0.4000000E+00  0.3200000E+00  0.3885781E-15  0.1536000E-02
    1       -7.992850   1.000000
    2       -3.999373   1.000000
    3       -1.279833   1.000000
    4        0.320294   1.000000
    5        4.398491   0.000000
    6        7.288950   0.000000
    7        9.337579   0.000000
    8        9.661798   0.000000

 -0.3600000E+00  0.3200000E+00  0.3885781E-15  0.1536000E-02
    1       -8.032558   1.000000
    2       -3.940783   1.000000
    3       -1.365478   1.000000
    4        0.442257   1.000000
    5        4.500490   0.000000
    6        7.800440   0.000000
    7        9.376377   0.000000
    8        9.449840   0.000000

 -0.3200000E+00  0.3200000E+00  0.3885781E-15  0.7680000E-03
    1       -8.119011   1.000000
    2       -3.834829   1.000000
    3       -1.357372   1.000000
    4        0.587254   1.000000
    5        4.616869   0.000000
    6        8.061450   0.000000
    7        9.031516   0.000000
    8        9.304764   0.000000

  0.3600000E+00  0.3600000E+00  0.3742002E-15  0.3840000E-03
    1       -8.490905   1.000000
    2       -3.273388   1.000000
    3        0.115456   1.000000
    4        0.115456   1.000000
    5        3.862701   0.000000
    6        4.717452   0.000000
    7       10.487578   0.000000
    8       10.487698   0.000000

  0.4000000E+00  0.3600000E+00  0.3747003E-15  0.1536000E-02
    1       -8.353250   1.000000
    2       -3.507340   1.000000
    3       -0.017227   1.000000
    4        0.046867   1.000000
    5        3.887245   0.000000
    6        4.620384   0.000000
    7       10.515422   0.000000
    8       10.735485   0.000000

  0.4400000E+00  0.3600000E+00  0.3747003E-15  0.1536000E-02
    1       -8.217406   1.000000
    2       -3.719473   1.000000
    3       -0.236547   1.000000
    4        0.009830   1.000000
    5        3.996547   0.000000
    6        4.676433   0.000000
    7       10.384281   0.000000
    8       10.837230   0.000000

  0.4800000E+00  0.3600000E+00  0.3747003E-15  0.1536000E-02
    1       -8.094703   1.000000
    2       -3.892625   1.000000
    3       -0.505887   1.000000
    4        0.005174   1.000000
    5        4.079895   0.000000
    6        4.958421   0.000000
    7       10.243882   0.000000
    8       10.808519   0.000000

 -0.4800000E+00  0.3600000E+00  0.2775558E-15  0.1536000E-02
    1       -7.997897   1.000000
    2       -4.013207   1.000000
    3       -0.783525   1.000000
    4        0.032971   1.000000
    5        4.130807   0.000000
    6        5.429710   0.000000
    7       10.114078   0.000000
    8       10.678272   0.000000

 -0.4400000E+00  0.3600000E+00  0.3330669E-15  0.1536000E-02
    1       -7.938966   1.000000
    2       -4.072802   1.000000
    3       -1.034770   1.000000
    4        0.092543   1.000000
    5        4.188993   0.000000
    6        6.012815   0.000000
    7       10.001501   0.000000
    8       10.466300   0.000000

 -0.4000000E+00  0.3600000E+00  0.3330669E-15  0.1536000E-02
    1       -7.925682   1.000000
    2       -4.071505   1.000000
    3       -1.231507   1.000000
    4        0.182415   1.000000
    5        4.270463   0.000000
    6        6.654231   0.000000
    7        9.904321   0.000000
    8       10.177521   0.000000

 -0.3600000E+00  0.3600000E+00  0.3885781E-15  0.7680000E-03
    1       -7.958885   1.000000
    2       -4.020602   1.000000
    3       -1.349091   1.000000
    4        0.300178   1.000000
    5        4.376629   0.000000
    6        7.295506   0.000000
    7        9.772306   0.000000
    8        9.811007   0.000000

  0.4000000E+00  0.4000000E+00  0.3742002E-15  0.3840000E-03
    1       -8.232170   1.000000
    2       -3.708814   1.000000
    3       -0.029382   1.000000
    4       -0.029382   1.000000
    5        3.799143   0.000000
    6        4.431080   0.000000
    7       11.104787   0.000000
    8       11.104872   0.000000

  0.4400000E+00  0.4000000E+00  0.3747003E-15  0.1536000E-02
    1       -8.115161   1.000000
    2       -3.889334   1.000000
    3       -0.143535   1.000000
    4       -0.074196   1.000000
    5        3.849756   0.000000
    6        4.361177   0.000000
    7       11.136311   0.000000
    8       11.314298   0.000000

  0.4800000E+00  0.4000000E+00  0.3747003E-15  0.1536000E-02
    1       -8.012685   1.000000
    2       -4.030575   1.000000
    3       -0.349313   1.000000
    4       -0.086543   1.000000
    5        3.958551   0.000000
    6        4.478687   0.000000
    7       11.004746   0.000000
    8       11.350429   0.000000

 -0.4800000E+00  0.4000000E+00  0.3330669E-15  0.1536000E-02
    1       -7.935714   1.000000
    2       -4.119815   1.000000
    3       -0.604361   1.000000
    4       -0.066164   1.000000
    5        4.024739   0.000000
    6        4.841366   0.000000
    7       10.847809   0.000000
    8       11.233754   0.000000

 -0.4400000E+00  0.4000000E+00  0.2775558E-15  0.1536000E-02
    1       -7.893416   1.000000
    2       -4.151546   1.000000
    3       -0.862022   1.000000
    4       -0.013545   1.000000
    5        4.082991   0.000000
    6        5.368208   0.000000
    7       10.665005   0.000000
    8       10.988678   0.000000

 -0.4000000E+00  0.4000000E+00  0.2775558E-15  0.7680000E-03
    1       -7.890483   1.000000
    2       -4.130203   1.000000
    3       -1.082419   1.000000
    4        0.070039   1.000000
    5        4.163342   0.000000
    6        5.988561   0.000000
    7       10.389026   0.000000
    8       10.630521   0.000000

  0.4400000E+00  0.4400000E+00  0.3742002E-15  0.3840000E-03
    1       -8.021050   1.000000
    2       -4.038363   1.000000
    3       -0.127054   1.000000
    4       -0.127054   1.000000
    5        3.794764   0.000000
    6        4.190901   0.000000
    7       11.644013   0.000000
    8       11.644078   0.000000

  0.4800000E+00  0.4400000E+00  0.3747003E-15  0.1536000E-02
    1       -7.944627   1.000000
    2       -4.146684   1.000000
    3       -0.219960   1.000000
    4       -0.147495   1.000000
    5        3.867036   0.000000
    6        4.159570   0.000000
    7       11.659036   0.000000
    8       11.771144   0.000000

 -0.4800000E+00  0.4400000E+00  0.3330669E-15  0.1536000E-02
    1       -7.894789   1.000000
    2       -4.201962   1.000000
    3       -0.405994   1.000000
    4       -0.135065   1.000000
    5        3.951627   0.000000
    6        4.364571   0.000000
    7       11.482559   0.000000
    8       11.684979   0.000000

 -0.4400000E+00  0.4400000E+00  0.3330669E-15  0.7680000E-03
    1       -7.877395   1.000000
    2       -4.200981   1.000000
    3       -0.637292   1.000000
    4       -0.090059   1.000000
    5        4.006677   0.000000
    6        4.800868   0.000000
    7       11.174956   0.000000
    8       11.411032   0.000000

  0.4800000E+00  0.4800000E+00  0.3742002E-15  0.3840000E-03
    1       -7.898857   1.000000
    2       -4.219973   1.000000
    3       -0.176211   1.000000
    4       -0.176210   1.000000
    5        3.841805   0.000000
    6        4.018721   0.000000
    7       11.990981   0.000000
    8       11.991100   0.000000

 -0.4800000E+00  0.4800000E+00  0.3330669E-15  0.7680000E-03
    1       -7.881563   1.000000
    2       -4.238757   1.000000
    3       -0.245538   1.000000
    4       -0.172034   1.000000
    5        3.902006   0.000000
    6        4.062229   0.000000
    7       11.892784   0.000000
    8       11.958192   0.000000

  0.1200000E+00  0.8000000E-01  0.4000000E-01  0.1536000E-02
    1       -9.916541   1.000000
    2        0.754049   1.000000
    3        1.926979   1.000000
    4        2.123351   1.000000
    5        3.733926   0.000000
    6        5.827928   0.000000
    7        6.356241   0.000000
    8        6.542601   0.000000

  0.1600000E+00  0.8000000E-01  0.4000000E-01  0.3072000E-02
    1       -9.837367   1.000000
    2        0.201359   1.000000
    3        1.728706   1.000000
    4        2.064459   1.000000
    5        3.983373   0.000000
    6        5.862806   0.000000
    7        6.505944   0.000000
    8        6.847245   0.000000

  0.2000000E+00  0.8000000E-01  0.4000000E-01  0.3072000E-02
    1       -9.728584   1.000000
    2       -0.405079   1.000000
    3        1.545142   1.000000
    4        1.967437   1.000000
    5        4.100383   0.000000
    6        6.013334   0.000000
    7        6.708525   0.000000
    8        7.169947   0.000000

  0.2400000E+00  0.8000000E-01  0.4000000E-01  0.3072000E-02
    1       -9.592610   1.000000
    2       -1.022750   1.000000
    3        1.377277   1.000000
    4        1.844703   1.000000
    5        4.100310   0.000000
    6        6.235383   0.000000
    7        6.924056   0.000000
    8        7.510982   0.000000

  0.2800000E+00  0.8000000E-01  0.4000000E-01  0.3072000E-02
    1       -9.433076   1.000000
    2       -1.627085   1.000000
    3        1.227707   1.000000
    4        1.710237   1.000000
    5        4.034101   0.000000
    6        6.455684   0.000000
    7        7.096945   0.000000
    8        7.894832   0.000000

  0.3200000E+00  0.8000000E-01  0.4000000E-01  0.3072000E-02
    1       -9.255368   1.000000
    2       -2.200396   1.000000
    3        1.098901   1.000000
    4        1.575853   1.000000
    5        3.942257   0.000000
    6        6.622885   0.000000
    7        7.192544   0.000000
    8        8.341922   0.000000

  0.3600000E+00  0.8000000E-01  0.4000000E-01  0.3072000E-02
    1       -9.067451   1.000000
    2       -2.726773   1.000000
    3        0.992455   1.000000
    4        1.450697   1.000000
    5        3.848076   0.000000
    6        6.723912   0.000000
    7        7.217793   0.000000
    8        8.839277   0.000000

  0.4000000E+00  0.8000000E-01  0.4000000E-01  0.3072000E-02
    1       -8.880786   1.000000
    2       -3.189384   1.000000
    3        0.908952   1.000000
    4        1.341761   1.000000
    5        3.764076   0.000000
    6        6.772177   0.000000
    7        7.199204   0.000000
    8        9.341871   0.000000

  0.4400000E+00  0.8000000E-01  0.4000000E-01  0.3072000E-02
    1       -8.711394   1.000000
    2       -3.568539   1.000000
    3        0.848049   1.000000
    4        1.254550   1.000000
    5        3.697062   0.000000
    6        6.788906   0.000000
    7        7.162563   0.000000
    8        9.767394   0.000000

  0.4800000E+00  0.8000000E-01  0.4000000E-01  0.3072000E-02
    1       -8.579542   1.000000
    2       -3.841486   1.000000
    3        0.808678   1.000000
    4        1.193505   1.000000
    5        3.650770   0.000000
    6        6.791588   0.000000
    7        7.127303   0.000000
    8       10.024978   0.000000

 -0.4800000E+00  0.8000000E-01  0.4000000E-01  0.3072000E-02
    1       -8.506417   1.000000
    2       -3.985527   1.000000
    3        0.789481   1.000000
    4        1.162019   1.000000
    5        3.627192   0.000000
    6        6.790710   0.000000
    7        7.106359   0.000000
    8       10.123352   0.000000

  0.1600000E+00  0.1200000E+00  0.4000000E-01  0.1536000E-02
    1       -9.810564   1.000000
    2        0.138623   1.000000
    3        1.643138   1.000000
    4        1.843867   1.000000
    5        4.272182   0.000000
    6        5.552152   0.000000
    7        6.793433   0.000000
    8        6.958680   0.000000

  0.2000000E+00  0.1200000E+00  0.4000000E-01  0.3072000E-02
    1       -9.711957   1.000000
    2       -0.370534   1.000000
    3        1.420259   1.000000
    4        1.766560   1.000000
    5        4.442551   0.000000
    6        5.592209   0.000000
    7        6.995298   0.000000
    8        7.271917   0.000000

  0.2400000E+00  0.1200000E+00  0.4000000E-01  0.3072000E-02
    1       -9.585469   1.000000
    2       -0.929220   1.000000
    3        1.220881   1.000000
    4        1.656917   1.000000
    5        4.492693   0.000000
    6        5.761855   0.000000
    7        7.214482   0.000000
    8        7.549909   0.000000

  0.2800000E+00  0.1200000E+00  0.4000000E-01  0.3072000E-02
    1       -9.434284   1.000000
    2       -1.499416   1.000000
    3        1.044053   1.000000
    4        1.528003   1.000000
    5        4.454617   0.000000
    6        6.009814   0.000000
    7        7.401145   0.000000
    8        7.791453   0.000000

  0.3200000E+00  0.1200000E+00  0.4000000E-01  0.3072000E-02
    1       -9.263140   1.000000
    2       -2.055660   1.000000
    3        0.888958   1.000000
    4        1.395641   1.000000
    5        4.375408   0.000000
    6        6.258516   0.000000
    7        7.511479   0.000000
    8        8.048460   0.000000

  0.3600000E+00  0.1200000E+00  0.4000000E-01  0.3072000E-02
    1       -9.079062   1.000000
    2       -2.578026   1.000000
    3        0.754697   1.000000
    4        1.273304   1.000000
    5        4.284922   0.000000
    6        6.446824   0.000000
    7        7.543787   0.000000
    8        8.378873   0.000000

  0.4000000E+00  0.1200000E+00  0.4000000E-01  0.3072000E-02
    1       -8.892174   1.000000
    2       -3.047917   1.000000
    3        0.640184   1.000000
    4        1.171211   1.000000
    5        4.199103   0.000000
    6        6.556442   0.000000
    7        7.524786   0.000000
    8        8.797533   0.000000

  0.4400000E+00  0.1200000E+00  0.4000000E-01  0.3072000E-02
    1       -8.716837   1.000000
    2       -3.445386   1.000000
    3        0.544543   1.000000
    4        1.096442   1.000000
    5        4.126650   0.000000
    6        6.608845   0.000000
    7        7.478775   0.000000
    8        9.272279   0.000000

  0.4800000E+00  0.1200000E+00  0.4000000E-01  0.3072000E-02
    1       -8.571864   1.000000
    2       -3.747864   1.000000
    3        0.467711   1.000000
    4        1.053107   1.000000
    5        4.072473   0.000000
    6        6.634576   0.000000
    7        7.423678   0.000000
    8        9.731633   0.000000

 -0.4800000E+00  0.1200000E+00  0.4000000E-01  0.3072000E-02
    1       -8.478451   1.000000
    2       -3.931817   1.000000
    3        0.410727   1.000000
    4        1.042637   1.000000
    5        4.039317   0.000000
    6        6.655003   0.000000
    7        7.372240   0.000000
    8       10.069358   0.000000

 -0.4400000E+00  0.1200000E+00  0.4000000E-01  0.3072000E-02
    1       -8.453909   1.000000
    2       -3.978724   1.000000
    3        0.375530   1.000000
    4        1.064368   1.000000
    5        4.028523   0.000000
    6        6.680494   0.000000
    7        7.332531   0.000000
    8       10.197460   0.000000

 -0.4000000E+00  0.1200000E+00  0.4000000E-01  0.3072000E-02
    1       -8.503319   1.000000
    2       -3.883215   1.000000
    3        0.364474   1.000000
    4        1.116230   1.000000
    5        4.040361   0.000000
    6        6.712378   0.000000
    7        7.308458   0.000000
    8       10.090799   0.000000

 -0.3600000E+00  0.1200000E+00  0.4000000E-01  0.3072000E-02
    1       -8.616659   1.000000
    2       -3.656084   1.000000
    3        0.379911   1.000000
    4        1.195228   1.000000
    5        4.074085   0.000000
    6        6.743606   0.000000
    7        7.300220   0.000000
    8        9.757773   0.000000

 -0.3200000E+00  0.1200000E+00  0.4000000E-01  0.3072000E-02
    1       -8.774319   1.000000
    2       -3.318702   1.000000
    3        0.424015   1.000000
    4        1.297601   1.000000
    5        4.127688   0.000000
    6        6.757840   0.000000
    7        7.303988   0.000000
    8        9.283527   0.000000

 -0.2800000E+00  0.1200000E+00  0.4000000E-01  0.3072000E-02
    1       -8.955472   1.000000
    2       -2.895068   1.000000
    3        0.498789   1.000000
    4        1.418696   1.000000
    5        4.197286   0.000000
    6        6.729728   0.000000
    7        7.308500   0.000000
    8        8.779603   0.000000

 -0.2400000E+00  0.1200000E+00  0.4000000E-01  0.3072000E-02
    1       -9.142746   1.000000
    2       -2.407498   1.000000
    3        0.606218   1.000000
    4        1.552607   1.000000
    5        4.275695   0.000000
    6        6.631858   0.000000
    7        7.285735   0.000000
    8        8.328010   0.000000

 -0.2000000E+00  0.1200000E+00  0.4000000E-01  0.3072000E-02
    1       -9.323343   1.000000
    2       -1.876403   1.000000
    3        0.748598   1.000000
    4        1.691641   1.000000
    5        4.349562   0.000000
    6        6.452178   0.000000
    7        7.188850   0.000000
    8        7.985997   0.000000

 -0.1600000E+00  0.1200000E+00  0.4000000E-01  0.3072000E-02
    1       -9.488313   1.000000
    2       -1.322488   1.000000
    3        0.929002   1.000000
    4        1.825683   1.000000
    5        4.393927   0.000000
    6        6.217180   0.000000
    7        7.004948   0.000000
    8        7.742906   0.000000

 -0.1200000E+00  0.1200000E+00  0.4000000E-01  0.3072000E-02
    1       -9.631506   1.000000
    2       -0.769917   1.000000
    3        1.151677   1.000000
    4        1.941871   1.000000
    5        4.367073   0.000000
    6        5.997517   0.000000
    7        6.794204   0.000000
    8        7.504175   0.000000

 -0.8000000E-01  0.1200000E+00  0.4000000E-01  0.1536000E-02
    1       -9.748784   1.000000
    2       -0.249534   1.000000
    3        1.420541   1.000000
    4        2.025501   1.000000
    5        4.226883   0.000000
    6        5.870815   0.000000
    7        6.617333   0.000000
    8        7.204521   0.000000

  0.2000000E+00  0.1600000E+00  0.4000000E-01  0.1536000E-02
    1       -9.664356   1.000000
    2       -0.480105   1.000000
    3        1.328257   1.000000
    4        1.514993   1.000000
    5        4.692438   0.000000
    6        5.330785   0.000000
    7        7.321516   0.000000
    8        7.427786   0.000000

  0.2400000E+00  0.1600000E+00  0.4000000E-01  0.3072000E-02
    1       -9.547853   1.000000
    2       -0.945141   1.000000
    3        1.095896   1.000000
    4        1.420765   1.000000
    5        4.777475   0.000000
    6        5.411114   0.000000
    7        7.551010   0.000000
    8        7.665986   0.000000

  0.2800000E+00  0.1600000E+00  0.4000000E-01  0.3072000E-02
    1       -9.405826   1.000000
    2       -1.451267   1.000000
    3        0.885504   1.000000
    4        1.302252   1.000000
    5        4.782776   0.000000
    6        5.609682   0.000000
    7        7.749030   0.000000
    8        7.803269   0.000000

  0.3200000E+00  0.1600000E+00  0.4000000E-01  0.3072000E-02
    1       -9.242464   1.000000
    2       -1.966051   1.000000
    3        0.695146   1.000000
    4        1.176366   1.000000
    5        4.732287   0.000000
    6        5.884642   0.000000
    7        7.823299   0.000000
    8        7.941758   0.000000

  0.3600000E+00  0.1600000E+00  0.4000000E-01  0.3072000E-02
    1       -9.063981   1.000000
    2       -2.464679   1.000000
    3        0.522774   1.000000
    4        1.060712   1.000000
    5        4.657948   0.000000
    6        6.163770   0.000000
    7        7.863748   0.000000
    8        8.076491   0.000000

  0.4000000E+00  0.1600000E+00  0.4000000E-01  0.3072000E-02
    1       -8.879323   1.000000
    2       -2.925642   1.000000
    3        0.367501   1.000000
    4        0.968080   1.000000
    5        4.580525   0.000000
    6        6.376815   0.000000
    7        7.889082   0.000000
    8        8.285237   0.000000

  0.4400000E+00  0.1600000E+00  0.4000000E-01  0.3072000E-02
    1       -8.701282   1.000000
    2       -3.327749   1.000000
    3        0.230107   1.000000
    4        0.905742   1.000000
    5        4.511906   0.000000
    6        6.497973   0.000000
    7        7.866246   0.000000
    8        8.648207   0.000000

  0.4800000E+00  0.1600000E+00  0.4000000E-01  0.3072000E-02
    1       -8.547018   1.000000
    2       -3.648173   1.000000
    3        0.112835   1.000000
    4        0.876651   1.000000
    5        4.458873   0.000000
    6        6.556017   0.000000
    7        7.810871   0.000000
    8        9.126243   0.000000

 -0.4800000E+00  0.1600000E+00  0.4000000E-01  0.3072000E-02
    1       -8.436924   1.000000
    2       -3.862884   1.000000
    3        0.018698   1.000000
    4        0.880992   1.000000
    5        4.425137   0.000000
    6        6.589715   0.000000
    7        7.743852   0.000000
    8        9.631453   0.000000

 -0.4400000E+00  0.1600000E+00  0.4000000E-01  0.3072000E-02
    1       -8.389925   1.000000
    2       -3.950988   1.000000
    3       -0.049097   1.000000
    4        0.917375   1.000000
    5        4.412412   0.000000
    6        6.622992   0.000000
    7        7.677597   0.000000
    8       10.022575   0.000000

 -0.4000000E+00  0.1600000E+00  0.4000000E-01  0.3072000E-02
    1       -8.415399   1.000000
    2       -3.902452   1.000000
    3       -0.087418   1.000000
    4        0.983452   1.000000
    5        4.420891   0.000000
    6        6.665664   0.000000
    7        7.617774   0.000000
    8       10.071270   0.000000

 -0.3600000E+00  0.1600000E+00  0.4000000E-01  0.3072000E-02
    1       -8.508109   1.000000
    2       -3.723323   1.000000
    3       -0.093188   1.000000
    4        1.076115   1.000000
    5        4.449442   0.000000
    6        6.716655   0.000000
    7        7.565218   0.000000
    8        9.731257   0.000000

 -0.3200000E+00  0.1600000E+00  0.4000000E-01  0.3072000E-02
    1       -8.651139   1.000000
    2       -3.432875   1.000000
    3       -0.063201   1.000000
    4        1.191407   1.000000
    5        4.495343   0.000000
    6        6.762771   0.000000
    7        7.518273   0.000000
    8        9.221012   0.000000

 -0.2800000E+00  0.1600000E+00  0.4000000E-01  0.3072000E-02
    1       -8.823845   1.000000
    2       -3.056073   1.000000
    3        0.006257   1.000000
    4        1.324283   1.000000
    5        4.553502   0.000000
    6        6.772739   0.000000
    7        7.476575   0.000000
    8        8.695880   0.000000

 -0.2400000E+00  0.1600000E+00  0.4000000E-01  0.3072000E-02
    1       -9.007910   1.000000
    2       -2.618379   1.000000
    3        0.119916   1.000000
    4        1.468166   1.000000
    5        4.614583   0.000000
    6        6.698779   0.000000
    7        7.435247   0.000000
    8        8.244123   0.000000

 -0.2000000E+00  0.1600000E+00  0.4000000E-01  0.3072000E-02
    1       -9.189247   1.000000
    2       -2.144723   1.000000
    3        0.284157   1.000000
    4        1.614414   1.000000
    5        4.661086   0.000000
    6        6.518036   0.000000
    7        7.345155   0.000000
    8        7.947825   0.000000

 -0.1600000E+00  0.1600000E+00  0.4000000E-01  0.3072000E-02
    1       -9.357885   1.000000
    2       -1.660936   1.000000
    3        0.507149   1.000000
    4        1.751732   1.000000
    5        4.661114   0.000000
    6        6.281149   0.000000
    7        7.159480   0.000000
    8        7.818828   0.000000

 -0.1200000E+00  0.1600000E+00  0.4000000E-01  0.1536000E-02
    1       -9.506880   1.000000
    2       -1.194246   1.000000
    3        0.796652   1.000000
    4        1.866051   1.000000
    5        4.569804   0.000000
    6        6.085467   0.000000
    7        6.953046   0.000000
    8        7.711391   0.000000

  0.2400000E+00  0.2000000E+00  0.4000000E-01  0.1536000E-02
    1       -9.480455   1.000000
    2       -1.090404   1.000000
    3        1.012982   1.000000
    4        1.179468   1.000000
    5        4.714055   0.000000
    6        5.381732   0.000000
    7        7.880362   0.000000
    8        7.913401   0.000000

  0.2800000E+00  0.2000000E+00  0.4000000E-01  0.3072000E-02
    1       -9.348213   1.000000
    2       -1.512136   1.000000
    3        0.779863   1.000000
    4        1.074791   1.000000
    5        4.753145   0.000000
    6        5.467192   0.000000
    7        7.956398   0.000000
    8        8.157193   0.000000

  0.3200000E+00  0.2000000E+00  0.4000000E-01  0.3072000E-02
    1       -9.193678   1.000000
    2       -1.963260   1.000000
    3        0.557619   1.000000
    4        0.957094   1.000000
    5        4.793373   0.000000
    6        5.629005   0.000000
    7        7.911369   0.000000
    8        8.343891   0.000000

  0.3600000E+00  0.2000000E+00  0.4000000E-01  0.3072000E-02
    1       -9.022365   1.000000
    2       -2.416742   1.000000
    3        0.345349   1.000000
    4        0.847326   1.000000
    5        4.787249   0.000000
    6        5.896613   0.000000
    7        7.849181   0.000000
    8        8.451372   0.000000

  0.4000000E+00  0.2000000E+00  0.4000000E-01  0.3072000E-02
    1       -8.842222   1.000000
    2       -2.849312   1.000000
    3        0.145347   1.000000
    4        0.761134   1.000000
    5        4.748593   0.000000
    6        6.211225   0.000000
    7        7.850621   0.000000
    8        8.488113   0.000000

  0.4400000E+00  0.2000000E+00  0.4000000E-01  0.3072000E-02
    1       -8.664625   1.000000
    2       -3.238687   1.000000
    3       -0.037627   1.000000
    4        0.706239   1.000000
    5        4.703434   0.000000
    6        6.476369   0.000000
    7        7.976825   0.000000
    8        8.494048   0.000000

  0.4800000E+00  0.2000000E+00  0.4000000E-01  0.3072000E-02
    1       -8.505052   1.000000
    2       -3.561740   1.000000
    3       -0.198210   1.000000
    4        0.685133   1.000000
    5        4.667508   0.000000
    6        6.630850   0.000000
    7        8.155152   0.000000
    8        8.606532   0.000000

 -0.4800000E+00  0.2000000E+00  0.4000000E-01  0.3072000E-02
    1       -8.382568   1.000000
    2       -3.794243   1.000000
    3       -0.331493   1.000000
    4        0.697690   1.000000
    5        4.648553   0.000000
    6        6.700577   0.000000
    7        8.168855   0.000000
    8        9.009422   0.000000

 -0.4400000E+00  0.2000000E+00  0.4000000E-01  0.3072000E-02
    1       -8.316487   1.000000
    2       -3.913933   1.000000
    3       -0.433201   1.000000
    4        0.742487   1.000000
    5        4.649678   0.000000
    6        6.737941   0.000000
    7        8.103356   0.000000
    8        9.521430   0.000000

 -0.4000000E+00  0.2000000E+00  0.4000000E-01  0.3072000E-02
    1       -8.319291   1.000000
    2       -3.907245   1.000000
    3       -0.499399   1.000000
    4        0.817260   1.000000
    5        4.671031   0.000000
    6        6.773910   0.000000
    7        8.020425   0.000000
    8        9.867065   0.000000

 -0.3600000E+00  0.2000000E+00  0.4000000E-01  0.3072000E-02
    1       -8.390331   1.000000
    2       -3.775752   1.000000
    3       -0.526037   1.000000
    4        0.918951   1.000000
    5        4.710463   0.000000
    6        6.819851   0.000000
    7        7.930282   0.000000
    8        9.685189   0.000000

 -0.3200000E+00  0.2000000E+00  0.4000000E-01  0.3072000E-02
    1       -8.516227   1.000000
    2       -3.536076   1.000000
    3       -0.508406   1.000000
    4        1.043537   1.000000
    5        4.763422   0.000000
    6        6.872247   0.000000
    7        7.830861   0.000000
    8        9.183435   0.000000

 -0.2800000E+00  0.2000000E+00  0.4000000E-01  0.3072000E-02
    1       -8.677506   1.000000
    2       -3.213723   1.000000
    3       -0.440480   1.000000
    4        1.185713   1.000000
    5        4.821917   0.000000
    6        6.906334   0.000000
    7        7.722674   0.000000
    8        8.647287   0.000000

 -0.2400000E+00  0.2000000E+00  0.4000000E-01  0.3072000E-02
    1       -8.855417   1.000000
    2       -2.837216   1.000000
    3       -0.314256   1.000000
    4        1.338429   1.000000
    5        4.871937   0.000000
    6        6.860137   0.000000
    7        7.632245   0.000000
    8        8.181511   0.000000

 -0.2000000E+00  0.2000000E+00  0.4000000E-01  0.3072000E-02
    1       -9.034909   1.000000
    2       -2.435417   1.000000
    3       -0.119693   1.000000
    4        1.492313   1.000000
    5        4.888348   0.000000
    6        6.681804   0.000000
    7        7.565845   0.000000
    8        7.863554   0.000000

 -0.1600000E+00  0.2000000E+00  0.4000000E-01  0.1536000E-02
    1       -9.204964   1.000000
    2       -2.035897   1.000000
    3        0.153062   1.000000
    4        1.635128   1.000000
    5        4.830670   0.000000
    6        6.448937   0.000000
    7        7.377043   0.000000
    8        7.803404   0.000000

  0.2800000E+00  0.2400000E+00  0.4000000E-01  0.1536000E-02
    1       -9.262626   1.000000
    2       -1.685265   1.000000
    3        0.716239   1.000000
    4        0.860207   1.000000
    5        4.504757   0.000000
    6        5.461899   0.000000
    7        8.311552   0.000000
    8        8.532760   0.000000

  0.3200000E+00  0.2400000E+00  0.4000000E-01  0.3072000E-02
    1       -9.117796   1.000000
    2       -2.064311   1.000000
    3        0.487088   1.000000
    4        0.752775   1.000000
    5        4.560976   0.000000
    6        5.490551   0.000000
    7        8.258299   0.000000
    8        8.781288   0.000000

  0.3600000E+00  0.2400000E+00  0.4000000E-01  0.3072000E-02
    1       -8.955070   1.000000
    2       -2.458985   1.000000
    3        0.250565   1.000000
    4        0.647134   1.000000
    5        4.642352   0.000000
    6        5.617813   0.000000
    7        8.140017   0.000000
    8        8.937286   0.000000

  0.4000000E+00  0.2400000E+00  0.4000000E-01  0.3072000E-02
    1       -8.781590   1.000000
    2       -2.846503   1.000000
    3        0.011965   1.000000
    4        0.563585   1.000000
    5        4.678842   0.000000
    6        5.892792   0.000000
    7        8.029315   0.000000
    8        8.999486   0.000000

  0.4400000E+00  0.2400000E+00  0.4000000E-01  0.3072000E-02
    1       -8.607524   1.000000
    2       -3.205374   1.000000
    3       -0.216740   1.000000
    4        0.511461   1.000000
    5        4.676524   0.000000
    6        6.269733   0.000000
    7        7.971457   0.000000
    8        8.989084   0.000000

  0.4800000E+00  0.2400000E+00  0.4000000E-01  0.3072000E-02
    1       -8.446731   1.000000
    2       -3.513433   1.000000
    3       -0.423940   1.000000
    4        0.493363   1.000000
    5        4.666715   0.000000
    6        6.646742   0.000000
    7        8.025031   0.000000
    8        8.938184   0.000000

 -0.4800000E+00  0.2400000E+00  0.4000000E-01  0.3072000E-02
    1       -8.316704   1.000000
    2       -3.747348   1.000000
    3       -0.600790   1.000000
    4        0.509188   1.000000
    5        4.668347   0.000000
    6        6.908080   0.000000
    7        8.246883   0.000000
    8        8.896335   0.000000

 -0.4400000E+00  0.2400000E+00  0.4000000E-01  0.3072000E-02
    1       -8.236151   1.000000
    2       -3.884878   1.000000
    3       -0.740690   1.000000
    4        0.557648   1.000000
    5        4.689368   0.000000
    6        7.029587   0.000000
    7        8.472083   0.000000
    8        9.033572   0.000000

 -0.4000000E+00  0.2400000E+00  0.4000000E-01  0.3072000E-02
    1       -8.219239   1.000000
    2       -3.910610   1.000000
    3       -0.838064   1.000000
    4        0.636653   1.000000
    5        4.731496   0.000000
    6        7.082962   0.000000
    7        8.455435   0.000000
    8        9.447905   0.000000

 -0.3600000E+00  0.2400000E+00  0.4000000E-01  0.3072000E-02
    1       -8.269099   1.000000
    2       -3.822750   1.000000
    3       -0.887248   1.000000
    4        0.743284   1.000000
    5        4.792281   0.000000
    6        7.121410   0.000000
    7        8.341683   0.000000
    8        9.600225   0.000000

 -0.3200000E+00  0.2400000E+00  0.4000000E-01  0.3072000E-02
    1       -8.376186   1.000000
    2       -3.635248   1.000000
    3       -0.881486   1.000000
    4        0.873569   1.000000
    5        4.865298   0.000000
    6        7.163714   0.000000
    7        8.177760   0.000000
    8        9.203598   0.000000

 -0.2800000E+00  0.2400000E+00  0.4000000E-01  0.3072000E-02
    1       -8.523206   1.000000
    2       -3.373445   1.000000
    3       -0.812091   1.000000
    4        1.022162   1.000000
    5        4.938780   0.000000
    6        7.200561   0.000000
    7        7.959995   0.000000
    8        8.705635   0.000000

 -0.2400000E+00  0.2400000E+00  0.4000000E-01  0.3072000E-02
    1       -8.691748   1.000000
    2       -3.067555   1.000000
    3       -0.668344   1.000000
    4        1.181822   1.000000
    5        4.992199   0.000000
    6        7.160239   0.000000
    7        7.748614   0.000000
    8        8.281253   0.000000

 -0.2000000E+00  0.2400000E+00  0.4000000E-01  0.1536000E-02
    1       -8.866248   1.000000
    2       -2.747107   1.000000
    3       -0.439414   1.000000
    4        1.342808   1.000000
    5        4.990922   0.000000
    6        6.940377   0.000000
    7        7.689885   0.000000
    8        7.952285   0.000000

  0.3200000E+00  0.2800000E+00  0.4000000E-01  0.1536000E-02
    1       -9.016639   1.000000
    2       -2.257534   1.000000
    3        0.449810   1.000000
    4        0.570659   1.000000
    5        4.292579   0.000000
    6        5.346514   0.000000
    7        8.780450   0.000000
    8        9.177262   0.000000

  0.3600000E+00  0.2800000E+00  0.4000000E-01  0.3072000E-02
    1       -8.863789   1.000000
    2       -2.593494   1.000000
    3        0.227102   1.000000
    4        0.468349   1.000000
    5        4.371459   0.000000
    6        5.338750   0.000000
    7        8.687426   0.000000
    8        9.420174   0.000000

  0.4000000E+00  0.2800000E+00  0.4000000E-01  0.3072000E-02
    1       -8.699025   1.000000
    2       -2.930131   1.000000
    3       -0.023938   1.000000
    4        0.384101   1.000000
    5        4.473395   0.000000
    6        5.470096   0.000000
    7        8.555581   0.000000
    8        9.540910   0.000000

  0.4400000E+00  0.2800000E+00  0.4000000E-01  0.3072000E-02
    1       -8.531539   1.000000
    2       -3.247543   1.000000
    3       -0.285708   1.000000
    4        0.331121   1.000000
    5        4.527151   0.000000
    6        5.783066   0.000000
    7        8.430918   0.000000
    8        9.560537   0.000000

  0.4800000E+00  0.2800000E+00  0.4000000E-01  0.3072000E-02
    1       -8.373766   1.000000
    2       -3.525974   1.000000
    3       -0.536347   1.000000
    4        0.312439   1.000000
    5        4.546662   0.000000
    6        6.228260   0.000000
    7        8.339226   0.000000
    8        9.510613   0.000000

 -0.4800000E+00  0.2800000E+00  0.4000000E-01  0.3072000E-02
    1       -8.241550   1.000000
    2       -3.744784   1.000000
    3       -0.759004   1.000000
    4        0.327990   1.000000
    5        4.565490   0.000000
    6        6.722329   0.000000
    7        8.313269   0.000000
    8        9.421488   0.000000

 -0.4400000E+00  0.2800000E+00  0.4000000E-01  0.3072000E-02
    1       -8.152295   1.000000
    2       -3.883860   1.000000
    3       -0.941696   1.000000
    4        0.376630   1.000000
    5        4.600826   0.000000
    6        7.157399   0.000000
    7        8.412685   0.000000
    8        9.323505   0.000000

 -0.4000000E+00  0.2800000E+00  0.4000000E-01  0.3072000E-02
    1       -8.120423   1.000000
    2       -3.928447   1.000000
    3       -1.075147   1.000000
    4        0.456464   1.000000
    5        4.658199   0.000000
    6        7.420142   0.000000
    7        8.640426   0.000000
    8        9.292653   0.000000

 -0.3600000E+00  0.2800000E+00  0.4000000E-01  0.3072000E-02
    1       -8.151524   1.000000
    2       -3.875539   1.000000
    3       -1.150694   1.000000
    4        0.564759   1.000000
    5        4.736493   0.000000
    6        7.534152   0.000000
    7        8.681350   0.000000
    8        9.476819   0.000000

 -0.3200000E+00  0.2800000E+00  0.4000000E-01  0.3072000E-02
    1       -8.239557   1.000000
    2       -3.737235   1.000000
    3       -1.158729   1.000000
    4        0.697715   1.000000
    5        4.829124   0.000000
    6        7.591591   0.000000
    7        8.458649   0.000000
    8        9.344594   0.000000

 -0.2800000E+00  0.2800000E+00  0.4000000E-01  0.3072000E-02
    1       -8.370037   1.000000
    2       -3.537736   1.000000
    3       -1.088031   1.000000
    4        0.850091   1.000000
    5        4.922434   0.000000
    6        7.632603   0.000000
    7        8.086230   0.000000
    8        8.943050   0.000000

 -0.2400000E+00  0.2800000E+00  0.4000000E-01  0.1536000E-02
    1       -8.525909   1.000000
    2       -3.306061   1.000000
    3       -0.927070   1.000000
    4        1.014712   1.000000
    5        4.991160   0.000000
    6        7.543931   0.000000
    7        7.768533   0.000000
    8        8.572756   0.000000

  0.3600000E+00  0.3200000E+00  0.4000000E-01  0.1536000E-02
    1       -8.751213   1.000000
    2       -2.797468   1.000000
    3        0.221258   1.000000
    4        0.319218   1.000000
    5        4.119406   0.000000
    6        5.097370   0.000000
    7        9.331970   0.000000
    8        9.831311   0.000000

  0.4000000E+00  0.3200000E+00  0.4000000E-01  0.3072000E-02
    1       -8.597187   1.000000
    2       -3.087783   1.000000
    3        0.006418   1.000000
    4        0.229590   1.000000
    5        4.219935   0.000000
    6        5.089886   0.000000
    7        9.230891   0.000000
    8       10.061122   0.000000

  0.4400000E+00  0.3200000E+00  0.4000000E-01  0.3072000E-02
    1       -8.439366   1.000000
    2       -3.363259   1.000000
    3       -0.255306   1.000000
    4        0.172420   1.000000
    5        4.329227   0.000000
    6        5.258792   0.000000
    7        9.098278   0.000000
    8       10.142758   0.000000

  0.4800000E+00  0.3200000E+00  0.4000000E-01  0.3072000E-02
    1       -8.289060   1.000000
    2       -3.605954   1.000000
    3       -0.531223   1.000000
    4        0.150486   1.000000
    5        4.386354   0.000000
    6        5.628937   0.000000
    7        8.970190   0.000000
    8       10.117987   0.000000

 -0.4800000E+00  0.3200000E+00  0.4000000E-01  0.3072000E-02
    1       -8.160508   1.000000
    2       -3.798415   1.000000
    3       -0.792334   1.000000
    4        0.163238   1.000000
    5        4.421168   0.000000
    6        6.134958   0.000000
    7        8.864774   0.000000
    8       10.022977   0.000000

 -0.4400000E+00  0.3200000E+00  0.4000000E-01  0.3072000E-02
    1       -8.069388   1.000000
    2       -3.924383   1.000000
    3       -1.017440   1.000000
    4        0.209547   1.000000
    5        4.465340   0.000000
    6        6.706183   0.000000
    7        8.799526   0.000000
    8        9.881343   0.000000

 -0.4000000E+00  0.3200000E+00  0.4000000E-01  0.3072000E-02
    1       -8.029154   1.000000
    2       -3.972430   1.000000
    3       -1.190440   1.000000
    4        0.287689   1.000000
    5        4.530977   0.000000
    6        7.268878   0.000000
    7        8.799216   0.000000
    8        9.709379   0.000000

 -0.3600000E+00  0.3200000E+00  0.4000000E-01  0.3072000E-02
    1       -8.046183   1.000000
    2       -3.941315   1.000000
    3       -1.297406   1.000000
    4        0.395150   1.000000
    5        4.619498   0.000000
    6        7.709459   0.000000
    7        8.847624   0.000000
    8        9.574747   0.000000

 -0.3200000E+00  0.3200000E+00  0.4000000E-01  0.3072000E-02
    1       -8.116940   1.000000
    2       -3.843071   1.000000
    3       -1.324557   1.000000
    4        0.528356   1.000000
    5        4.725411   0.000000
    6        7.937791   0.000000
    7        8.666999   0.000000
    8        9.605250   0.000000

 -0.2800000E+00  0.3200000E+00  0.4000000E-01  0.1536000E-02
    1       -8.229851   1.000000
    2       -3.700247   1.000000
    3       -1.258236   1.000000
    4        0.682315   1.000000
    5        4.835272   0.000000
    6        7.976544   0.000000
    7        8.256056   0.000000
    8        9.298439   0.000000

  0.4000000E+00  0.3600000E+00  0.4000000E-01  0.1536000E-02
    1       -8.480043   1.000000
    2       -3.290359   1.000000
    3        0.035586   1.000000
    4        0.111310   1.000000
    5        3.996971   0.000000
    6        4.806889   0.000000
    7        9.939967   0.000000
    8       10.479661   0.000000

  0.4400000E+00  0.3600000E+00  0.4000000E-01  0.3072000E-02
    1       -8.335088   1.000000
    2       -3.529011   1.000000
    3       -0.170159   1.000000
    4        0.041162   1.000000
    5        4.116311   0.000000
    6        4.826278   0.000000
    7        9.835312   0.000000
    8       10.684393   0.000000

  0.4800000E+00  0.3600000E+00  0.4000000E-01  0.3072000E-02
    1       -8.196967   1.000000
    2       -3.737091   1.000000
    3       -0.435159   1.000000
    4        0.013366   1.000000
    5        4.221550   0.000000
    6        5.056467   0.000000
    7        9.702610   0.000000
    8       10.715054   0.000000

 -0.4800000E+00  0.3600000E+00  0.4000000E-01  0.3072000E-02
    1       -8.078471   1.000000
    2       -3.899096   1.000000
    3       -0.713148   1.000000
    4        0.021460   1.000000
    5        4.277229   0.000000
    6        5.491708   0.000000
    7        9.572662   0.000000
    8       10.625775   0.000000

 -0.4400000E+00  0.3600000E+00  0.4000000E-01  0.3072000E-02
    1       -7.993275   1.000000
    2       -4.002448   1.000000
    3       -0.970175   1.000000
    4        0.063635   1.000000
    5        4.327626   0.000000
    6        6.050654   0.000000
    7        9.459346   0.000000
    8       10.442644   0.000000

 -0.4000000E+00  0.3600000E+00  0.4000000E-01  0.3072000E-02
    1       -7.952907   1.000000
    2       -4.040321   1.000000
    3       -1.180392   1.000000
    4        0.138249   1.000000
    5        4.396818   0.000000
    6        6.672043   0.000000
    7        9.371261   0.000000
    8       10.161019   0.000000

 -0.3600000E+00  0.3600000E+00  0.4000000E-01  0.3072000E-02
    1       -7.962870   1.000000
    2       -4.015608   1.000000
    3       -1.322190   1.000000
    4        0.243006   1.000000
    5        4.490164   0.000000
    6        7.295392   0.000000
    7        9.297017   0.000000
    8        9.788665   0.000000

 -0.3200000E+00  0.3600000E+00  0.4000000E-01  0.1536000E-02
    1       -8.020610   1.000000
    2       -3.942601   1.000000
    3       -1.375890   1.000000
    4        0.374600   1.000000
    5        4.603793   0.000000
    6        7.803345   0.000000
    7        9.042398   0.000000
    8        9.610715   0.000000

  0.4400000E+00  0.4000000E+00  0.4000000E-01  0.1536000E-02
    1       -8.224472   1.000000
    2       -3.713667   1.000000
    3       -0.103864   1.000000
    4       -0.049495   1.000000
    5        3.930449   0.000000
    6        4.531481   0.000000
    7       10.566205   0.000000
    8       11.094000   0.000000

  0.4800000E+00  0.4000000E+00  0.4000000E-01  0.3072000E-02
    1       -8.103539   1.000000
    2       -3.889799   1.000000
    3       -0.298961   1.000000
    4       -0.094468   1.000000
    5        4.062604   0.000000
    6        4.595555   0.000000
    7       10.457392   0.000000
    8       11.242017   0.000000

 -0.4800000E+00  0.4000000E+00  0.4000000E-01  0.3072000E-02
    1       -8.001917   1.000000
    2       -4.020652   1.000000
    3       -0.557788   1.000000
    4       -0.092750   1.000000
    5        4.152310   0.000000
    6        4.903610   0.000000
    7       10.321527   0.000000
    8       11.174215   0.000000

 -0.4400000E+00  0.4000000E+00  0.4000000E-01  0.3072000E-02
    1       -7.931092   1.000000
    2       -4.096116   1.000000
    3       -0.824609   1.000000
    4       -0.056004   1.000000
    5        4.208958   0.000000
    6        5.401361   0.000000
    7       10.183210   0.000000
    8       10.929992   0.000000

 -0.4000000E+00  0.4000000E+00  0.4000000E-01  0.3072000E-02
    1       -7.899848   1.000000
    2       -4.113569   1.000000
    3       -1.061110   1.000000
    4        0.013762   1.000000
    5        4.278394   0.000000
    6        6.003578   0.000000
    7       10.047556   0.000000
    8       10.507551   0.000000

 -0.3600000E+00  0.4000000E+00  0.4000000E-01  0.1536000E-02
    1       -7.911477   1.000000
    2       -4.080698   1.000000
    3       -1.236053   1.000000
    4        0.114436   1.000000
    5        4.372793   0.000000
    6        6.657479   0.000000
    7        9.855051   0.000000
    8        9.994961   0.000000

  0.4800000E+00  0.4400000E+00  0.4000000E-01  0.1536000E-02
    1       -8.016492   1.000000
    2       -4.034273   1.000000
    3       -0.195004   1.000000
    4       -0.160775   1.000000
    5        3.921596   0.000000
    6        4.300486   0.000000
    7       11.165970   0.000000
    8       11.604851   0.000000

 -0.4800000E+00  0.4400000E+00  0.4000000E-01  0.3072000E-02
    1       -7.938589   1.000000
    2       -4.132898   1.000000
    3       -0.377324   1.000000
    4       -0.176145   1.000000
    5        4.051914   0.000000
    6        4.428562   0.000000
    7       11.047501   0.000000
    8       11.597051   0.000000

 -0.4400000E+00  0.4400000E+00  0.4000000E-01  0.3072000E-02
    1       -7.890449   1.000000
    2       -4.176684   1.000000
    3       -0.619854   1.000000
    4       -0.145830   1.000000
    5        4.119155   0.000000
    6        4.821945   0.000000
    7       10.888651   0.000000
    8       11.289710   0.000000

 -0.4000000E+00  0.4400000E+00  0.4000000E-01  0.1536000E-02
    1       -7.877475   1.000000
    2       -4.166318   1.000000
    3       -0.862112   1.000000
    4       -0.081838   1.000000
    5        4.185779   0.000000
    6        5.370157   0.000000
    7       10.645028   0.000000
    8       10.809308   0.000000

 -0.4800000E+00  0.4800000E+00  0.4000000E-01  0.1536000E-02
    1       -7.896411   1.000000
    2       -4.210919   1.000000
    3       -0.237502   1.000000
    4       -0.220132   1.000000
    5        3.962360   0.000000
    6        4.136803   0.000000
    7       11.653412   0.000000
    8       11.845508   0.000000

 -0.4400000E+00  0.4800000E+00  0.4000000E-01  0.1536000E-02
    1       -7.877825   1.000000
    2       -4.219809   1.000000
    3       -0.403626   1.000000
    4       -0.203411   1.000000
    5        4.057411   0.000000
    6        4.362817   0.000000
    7       11.456375   0.000000
    8       11.557912   0.000000

  0.2400000E+00  0.1600000E+00  0.8000000E-01  0.1536000E-02
    1       -9.604829   1.000000
    2       -0.797416   1.000000
    3        1.100260   1.000000
    4        1.718312   1.000000
    5        4.635708   0.000000
    6        5.607641   0.000000
    7        7.168220   0.000000
    8        7.556210   0.000000

  0.2800000E+00  0.1600000E+00  0.8000000E-01  0.3072000E-02
    1       -9.471032   1.000000
    2       -1.279260   1.000000
    3        0.825122   1.000000
    4        1.626521   1.000000
    5        4.728709   0.000000
    6        5.751878   0.000000
    7        7.378571   0.000000
    8        7.726846   0.000000

  0.3200000E+00  0.1600000E+00  0.8000000E-01  0.3072000E-02
    1       -9.314213   1.000000
    2       -1.785941   1.000000
    3        0.599053   1.000000
    4        1.505760   1.000000
    5        4.723389   0.000000
    6        5.997122   0.000000
    7        7.570035   0.000000
    8        7.835036   0.000000

  0.3600000E+00  0.1600000E+00  0.8000000E-01  0.3072000E-02
    1       -9.139793   1.000000
    2       -2.289767   1.000000
    3        0.417794   1.000000
    4        1.373047   1.000000
    5        4.666641   0.000000
    6        6.256823   0.000000
    7        7.657996   0.000000
    8        8.020106   0.000000

  0.4000000E+00  0.1600000E+00  0.8000000E-01  0.3072000E-02
    1       -8.955664   1.000000
    2       -2.766404   1.000000
    3        0.275904   1.000000
    4        1.242819   1.000000
    5        4.593924   0.000000
    6        6.449313   0.000000
    7        7.677380   0.000000
    8        8.323236   0.000000

  0.4400000E+00  0.1600000E+00  0.8000000E-01  0.3072000E-02
    1       -8.773159   1.000000
    2       -3.193219   1.000000
    3        0.168627   1.000000
    4        1.126187   1.000000
    5        4.523698   0.000000
    6        6.545457   0.000000
    7        7.678604   0.000000
    8        8.734207   0.000000

  0.4800000E+00  0.1600000E+00  0.8000000E-01  0.3072000E-02
    1       -8.607966   1.000000
    2       -3.547063   1.000000
    3        0.092047   1.000000
    4        1.031491   1.000000
    5        4.465518   0.000000
    6        6.573208   0.000000
    7        7.669536   0.000000
    8        9.222775   0.000000

 -0.4800000E+00  0.1600000E+00  0.8000000E-01  0.3072000E-02
    1       -8.479694   1.000000
    2       -3.803444   1.000000
    3        0.042991   1.000000
    4        0.964863   1.000000
    5        4.424518   0.000000
    6        6.571699   0.000000
    7        7.656768   0.000000
    8        9.714657   0.000000

 -0.4400000E+00  0.1600000E+00  0.8000000E-01  0.3072000E-02
    1       -8.408707   1.000000
    2       -3.939174   1.000000
    3        0.019103   1.000000
    4        0.930475   1.000000
    5        4.403429   0.000000
    6        6.565652   0.000000
    7        7.648062   0.000000
    8       10.065971   0.000000

  0.2800000E+00  0.2000000E+00  0.8000000E-01  0.1536000E-02
    1       -9.424024   1.000000
    2       -1.343269   1.000000
    3        0.782729   1.000000
    4        1.360584   1.000000
    5        4.904913   0.000000
    6        5.455768   0.000000
    7        7.748355   0.000000
    8        7.819353   0.000000

  0.3200000E+00  0.2000000E+00  0.8000000E-01  0.3072000E-02
    1       -9.276286   1.000000
    2       -1.781999   1.000000
    3        0.511101   1.000000
    4        1.260340   1.000000
    5        4.971144   0.000000
    6        5.614693   0.000000
    7        7.765562   0.000000
    8        8.027898   0.000000

  0.3600000E+00  0.2000000E+00  0.8000000E-01  0.3072000E-02
    1       -9.109452   1.000000
    2       -2.236370   1.000000
    3        0.283785   1.000000
    4        1.138704   1.000000
    5        4.958118   0.000000
    6        5.884432   0.000000
    7        7.723768   0.000000
    8        8.218927   0.000000

  0.4000000E+00  0.2000000E+00  0.8000000E-01  0.3072000E-02
    1       -8.930498   1.000000
    2       -2.681699   1.000000
    3        0.097401   1.000000
    4        1.015132   1.000000
    5        4.907596   0.000000
    6        6.175452   0.000000
    7        7.730213   0.000000
    8        8.359872   0.000000

  0.4400000E+00  0.2000000E+00  0.8000000E-01  0.3072000E-02
    1       -8.749458   1.000000
    2       -3.093941   1.000000
    3       -0.053076   1.000000
    4        0.905178   1.000000
    5        4.849956   0.000000
    6        6.390297   0.000000
    7        7.838041   0.000000
    8        8.491989   0.000000

  0.4800000E+00  0.2000000E+00  0.8000000E-01  0.3072000E-02
    1       -8.580374   1.000000
    2       -3.448970   1.000000
    3       -0.172196   1.000000
    4        0.819911   1.000000
    5        4.799769   0.000000
    6        6.491262   0.000000
    7        7.981208   0.000000
    8        8.729196   0.000000

 -0.4800000E+00  0.2000000E+00  0.8000000E-01  0.3072000E-02
    1       -8.441299   1.000000
    2       -3.721746   1.000000
    3       -0.263067   1.000000
    4        0.766459   1.000000
    5        4.764117   0.000000
    6        6.519613   0.000000
    7        8.046235   0.000000
    8        9.143753   0.000000

 -0.4400000E+00  0.2000000E+00  0.8000000E-01  0.3072000E-02
    1       -8.352308   1.000000
    2       -3.887902   1.000000
    3       -0.327001   1.000000
    4        0.748556   1.000000
    5        4.746322   0.000000
    6        6.524450   0.000000
    7        8.049179   0.000000
    8        9.628120   0.000000

 -0.4000000E+00  0.2000000E+00  0.8000000E-01  0.3072000E-02
    1       -8.329476   1.000000
    2       -3.929139   1.000000
    3       -0.363490   1.000000
    4        0.767035   1.000000
    5        4.747504   0.000000
    6        6.531454   0.000000
    7        8.027041   0.000000
    8        9.924494   0.000000

 -0.3600000E+00  0.2000000E+00  0.8000000E-01  0.3072000E-02
    1       -8.377374   1.000000
    2       -3.840547   1.000000
    3       -0.370447   1.000000
    4        0.820340   1.000000
    5        4.767234   0.000000
    6        6.548451   0.000000
    7        7.991627   0.000000
    8        9.705309   0.000000

 -0.3200000E+00  0.2000000E+00  0.8000000E-01  0.3072000E-02
    1       -8.486568   1.000000
    2       -3.633186   1.000000
    3       -0.344504   1.000000
    4        0.905001   1.000000
    5        4.803703   0.000000
    6        6.569380   0.000000
    7        7.938232   0.000000
    8        9.227302   0.000000

 -0.2800000E+00  0.2000000E+00  0.8000000E-01  0.3072000E-02
    1       -8.638629   1.000000
    2       -3.329233   1.000000
    3       -0.281180   1.000000
    4        1.015860   1.000000
    5        4.853283   0.000000
    6        6.570014   0.000000
    7        7.853963   0.000000
    8        8.760139   0.000000

 -0.2400000E+00  0.2000000E+00  0.8000000E-01  0.3072000E-02
    1       -8.813766   1.000000
    2       -2.954975   1.000000
    3       -0.174765   1.000000
    4        1.145957   1.000000
    5        4.909217   0.000000
    6        6.500368   0.000000
    7        7.747683   0.000000
    8        8.395834   0.000000

 -0.2000000E+00  0.2000000E+00  0.8000000E-01  0.3072000E-02
    1       -8.995330   1.000000
    2       -2.537063   1.000000
    3       -0.018117   1.000000
    4        1.286055   1.000000
    5        4.958255   0.000000
    6        6.315200   0.000000
    7        7.683885   0.000000
    8        8.121647   0.000000

 -0.1600000E+00  0.2000000E+00  0.8000000E-01  0.3072000E-02
    1       -9.170814   1.000000
    2       -2.101875   1.000000
    3        0.197097   1.000000
    4        1.423876   1.000000
    5        4.973047   0.000000
    6        6.058341   0.000000
    7        7.684418   0.000000
    8        7.884722   0.000000

 -0.1200000E+00  0.2000000E+00  0.8000000E-01  0.1536000E-02
    1       -9.331422   1.000000
    2       -1.675173   1.000000
    3        0.478142   1.000000
    4        1.543542   1.000000
    5        4.905563   0.000000
    6        5.844936   0.000000
    7        7.583864   0.000000
    8        7.773734   0.000000

  0.3200000E+00  0.2400000E+00  0.8000000E-01  0.1536000E-02
    1       -9.210320   1.000000
    2       -1.878815   1.000000
    3        0.486964   1.000000
    4        1.000209   1.000000
    5        4.837447   0.000000
    6        5.512578   0.000000
    7        7.925105   0.000000
    8        8.441175   0.000000

  0.3600000E+00  0.2400000E+00  0.8000000E-01  0.3072000E-02
    1       -9.052308   1.000000
    2       -2.271265   1.000000
    3        0.224440   1.000000
    4        0.893221   1.000000
    5        4.938075   0.000000
    6        5.633927   0.000000
    7        7.818352   0.000000
    8        8.682635   0.000000

  0.4000000E+00  0.2400000E+00  0.8000000E-01  0.3072000E-02
    1       -8.880390   1.000000
    2       -2.668190   1.000000
    3       -0.005403   1.000000
    4        0.776963   1.000000
    5        4.974515   0.000000
    6        5.892594   0.000000
    7        7.714052   0.000000
    8        8.840917   0.000000

  0.4400000E+00  0.2400000E+00  0.8000000E-01  0.3072000E-02
    1       -8.703506   1.000000
    2       -3.047463   1.000000
    3       -0.203691   1.000000
    4        0.672549   1.000000
    5        4.961720   0.000000
    6        6.224664   0.000000
    7        7.676963   0.000000
    8        8.917912   0.000000

  0.4800000E+00  0.2400000E+00  0.8000000E-01  0.3072000E-02
    1       -8.534156   1.000000
    2       -3.385794   1.000000
    3       -0.372092   1.000000
    4        0.594477   1.000000
    5        4.938334   0.000000
    6        6.502118   0.000000
    7        7.786607   0.000000
    8        8.949556   0.000000

 -0.4800000E+00  0.2400000E+00  0.8000000E-01  0.3072000E-02
    1       -8.388731   1.000000
    2       -3.658616   1.000000
    3       -0.511142   1.000000
    4        0.550819   1.000000
    5        4.923738   0.000000
    6        6.637910   0.000000
    7        8.064529   0.000000
    8        9.001039   0.000000

 -0.4400000E+00  0.2400000E+00  0.8000000E-01  0.3072000E-02
    1       -8.286260   1.000000
    2       -3.841382   1.000000
    3       -0.619675   1.000000
    4        0.544767   1.000000
    5        4.925591   0.000000
    6        6.673530   0.000000
    7        8.329452   0.000000
    8        9.200473   0.000000

 -0.4000000E+00  0.2400000E+00  0.8000000E-01  0.3072000E-02
    1       -8.243821   1.000000
    2       -3.913980   1.000000
    3       -0.694974   1.000000
    4        0.576168   1.000000
    5        4.945920   0.000000
    6        6.678111   0.000000
    7        8.406889   0.000000
    8        9.580443   0.000000

 -0.3600000E+00  0.2400000E+00  0.8000000E-01  0.3072000E-02
    1       -8.269519   1.000000
    2       -3.867710   1.000000
    3       -0.733062   1.000000
    4        0.642654   1.000000
    5        4.983464   0.000000
    6        6.684479   0.000000
    7        8.356091   0.000000
    8        9.697312   0.000000

 -0.3200000E+00  0.2400000E+00  0.8000000E-01  0.3072000E-02
    1       -8.358240   1.000000
    2       -3.709693   1.000000
    3       -0.728772   1.000000
    4        0.740233   1.000000
    5        5.034423   0.000000
    6        6.699818   0.000000
    7        8.215160   0.000000
    8        9.336662   0.000000

 -0.2800000E+00  0.2400000E+00  0.8000000E-01  0.3072000E-02
    1       -8.494442   1.000000
    2       -3.460438   1.000000
    3       -0.675548   1.000000
    4        0.863418   1.000000
    5        5.092088   0.000000
    6        6.708802   0.000000
    7        7.977250   0.000000
    8        8.957549   0.000000

 -0.2400000E+00  0.2400000E+00  0.8000000E-01  0.3072000E-02
    1       -8.659078   1.000000
    2       -3.147338   1.000000
    3       -0.565159   1.000000
    4        1.004895   1.000000
    5        5.144888   0.000000
    6        6.658026   0.000000
    7        7.715785   0.000000
    8        8.666245   0.000000

 -0.2000000E+00  0.2400000E+00  0.8000000E-01  0.3072000E-02
    1       -8.834992   1.000000
    2       -2.799398   1.000000
    3       -0.387960   1.000000
    4        1.154874   1.000000
    5        5.170956   0.000000
    6        6.477779   0.000000
    7        7.589212   0.000000
    8        8.403136   0.000000

 -0.1600000E+00  0.2400000E+00  0.8000000E-01  0.1536000E-02
    1       -9.008808   1.000000
    2       -2.443745   1.000000
    3       -0.134958   1.000000
    4        1.300230   1.000000
    5        5.129010   0.000000
    6        6.230773   0.000000
    7        7.617377   0.000000
    8        8.130411   0.000000

  0.3600000E+00  0.2800000E+00  0.8000000E-01  0.1536000E-02
    1       -8.969683   1.000000
    2       -2.397056   1.000000
    3        0.224687   1.000000
    4        0.662168   1.000000
    5        4.655761   0.000000
    6        5.488235   0.000000
    7        8.179800   0.000000
    8        9.113367   0.000000

  0.4000000E+00  0.2800000E+00  0.8000000E-01  0.3072000E-02
    1       -8.806531   1.000000
    2       -2.740324   1.000000
    3       -0.025708   1.000000
    4        0.552586   1.000000
    5        4.788696   0.000000
    6        5.585744   0.000000
    7        8.050289   0.000000
    8        9.354078   0.000000

  0.4400000E+00  0.2800000E+00  0.8000000E-01  0.3072000E-02
    1       -8.636396   1.000000
    2       -3.075180   1.000000
    3       -0.261007   1.000000
    4        0.450751   1.000000
    5        4.862222   0.000000
    6        5.857547   0.000000
    7        7.922768   0.000000
    8        9.475082   0.000000

  0.4800000E+00  0.2800000E+00  0.8000000E-01  0.3072000E-02
    1       -8.470431   1.000000
    2       -3.381510   1.000000
    3       -0.476824   1.000000
    4        0.376142   1.000000
    5        4.882045   0.000000
    6        6.256982   0.000000
    7        7.836996   0.000000
    8        9.502219   0.000000

 -0.4800000E+00  0.2800000E+00  0.8000000E-01  0.3072000E-02
    1       -8.323378   1.000000
    2       -3.637434   1.000000
    3       -0.666915   1.000000
    4        0.338112   1.000000
    5        4.891981   0.000000
    6        6.662512   0.000000
    7        7.856692   0.000000
    8        9.476876   0.000000

 -0.4400000E+00  0.2800000E+00  0.8000000E-01  0.3072000E-02
    1       -8.212782   1.000000
    2       -3.820273   1.000000
    3       -0.824432   1.000000
    4        0.339265   1.000000
    5        4.913909   0.000000
    6        6.924108   0.000000
    7        8.077745   0.000000
    8        9.441156   0.000000

 -0.4000000E+00  0.2800000E+00  0.8000000E-01  0.3072000E-02
    1       -8.155493   1.000000
    2       -3.910277   1.000000
    3       -0.942651   1.000000
    4        0.378654   1.000000
    5        4.954988   0.000000
    6        7.012606   0.000000
    7        8.426641   0.000000
    8        9.467925   0.000000

 -0.3600000E+00  0.2800000E+00  0.8000000E-01  0.3072000E-02
    1       -8.161727   1.000000
    2       -3.897008   1.000000
    3       -1.014785   1.000000
    4        0.453467   1.000000
    5        5.015281   0.000000
    6        7.030366   0.000000
    7        8.573977   0.000000
    8        9.658020   0.000000

 -0.3200000E+00  0.2800000E+00  0.8000000E-01  0.3072000E-02
    1       -8.230103   1.000000
    2       -3.784675   1.000000
    3       -1.033370   1.000000
    4        0.559578   1.000000
    5        5.090053   0.000000
    6        7.036029   0.000000
    7        8.391271   0.000000
    8        9.595842   0.000000

 -0.2800000E+00  0.2800000E+00  0.8000000E-01  0.3072000E-02
    1       -8.348439   1.000000
    2       -3.591734   1.000000
    3       -0.989590   1.000000
    4        0.691504   1.000000
    5        5.169310   0.000000
    6        7.037410   0.000000
    7        8.019421   0.000000
    8        9.316692   0.000000

 -0.2400000E+00  0.2800000E+00  0.8000000E-01  0.3072000E-02
    1       -8.499460   1.000000
    2       -3.345144   1.000000
    3       -0.873258   1.000000
    4        0.841918   1.000000
    5        5.234770   0.000000
    6        6.980148   0.000000
    7        7.658540   0.000000
    8        9.036673   0.000000

 -0.2000000E+00  0.2800000E+00  0.8000000E-01  0.1536000E-02
    1       -8.666251   1.000000
    2       -3.073270   1.000000
    3       -0.674504   1.000000
    4        1.000880   1.000000
    5        5.252905   0.000000
    6        6.751771   0.000000
    7        7.531273   0.000000
    8        8.729131   0.000000

  0.4000000E+00  0.3200000E+00  0.8000000E-01  0.1536000E-02
    1       -8.711038   1.000000
    2       -2.888821   1.000000
    3        0.003444   1.000000
    4        0.360987   1.000000
    5        4.490064   0.000000
    6        5.309128   0.000000
    7        8.604805   0.000000
    8        9.791787   0.000000

  0.4400000E+00  0.3200000E+00  0.8000000E-01  0.3072000E-02
    1       -8.550198   1.000000
    2       -3.179159   1.000000
    3       -0.233577   1.000000
    4        0.255331   1.000000
    5        4.643679   0.000000
    6        5.416484   0.000000
    7        8.473707   0.000000
    8       10.020663   0.000000

  0.4800000E+00  0.3200000E+00  0.8000000E-01  0.3072000E-02
    1       -8.391328   1.000000
    2       -3.447074   1.000000
    3       -0.476966   1.000000
    4        0.178501   1.000000
    5        4.729334   0.000000
    6        5.732159   0.000000
    7        8.339374   0.000000
    8       10.096801   0.000000

 -0.4800000E+00  0.3200000E+00  0.8000000E-01  0.3072000E-02
    1       -8.247673   1.000000
    2       -3.674345   1.000000
    3       -0.710455   1.000000
    4        0.141663   1.000000
    5        4.766853   0.000000
    6        6.199256   0.000000
    7        8.228276   0.000000
    8       10.066850   0.000000

 -0.4400000E+00  0.3200000E+00  0.8000000E-01  0.3072000E-02
    1       -8.135061   1.000000
    2       -3.842146   1.000000
    3       -0.916585   1.000000
    4        0.146054   1.000000
    5        4.802854   0.000000
    6        6.719944   0.000000
    7        8.172996   0.000000
    8        9.967871   0.000000

 -0.4000000E+00  0.3200000E+00  0.8000000E-01  0.3072000E-02
    1       -8.069173   1.000000
    2       -3.933784   1.000000
    3       -1.080897   1.000000
    4        0.189588   1.000000
    5        4.855976   0.000000
    6        7.173034   0.000000
    7        8.240431   0.000000
    8        9.815132   0.000000

 -0.3600000E+00  0.3200000E+00  0.8000000E-01  0.3072000E-02
    1       -8.060742   1.000000
    2       -3.940090   1.000000
    3       -1.191413   1.000000
    4        0.269029   1.000000
    5        4.930204   0.000000
    6        7.416202   0.000000
    7        8.454037   0.000000
    8        9.656861   0.000000

 -0.3200000E+00  0.3200000E+00  0.8000000E-01  0.3072000E-02
    1       -8.110911   1.000000
    2       -3.864543   1.000000
    3       -1.236913   1.000000
    4        0.380265   1.000000
    5        5.022056   0.000000
    6        7.492829   0.000000
    7        8.426902   0.000000
    8        9.739117   0.000000

 -0.2800000E+00  0.3200000E+00  0.8000000E-01  0.3072000E-02
    1       -8.210752   1.000000
    2       -3.723879   1.000000
    3       -1.205864   1.000000
    4        0.517997   1.000000
    5        5.121069   0.000000
    6        7.513058   0.000000
    7        8.020326   0.000000
    8        9.715924   0.000000

 -0.2400000E+00  0.3200000E+00  0.8000000E-01  0.1536000E-02
    1       -8.345488   1.000000
    2       -3.542707   1.000000
    3       -1.087131   1.000000
    4        0.675132   1.000000
    5        5.205802   0.000000
    6        7.394657   0.000000
    7        7.658219   0.000000
    8        9.411901   0.000000

  0.4400000E+00  0.3600000E+00  0.8000000E-01  0.1536000E-02
    1       -8.448183   1.000000
    2       -3.339982   1.000000
    3       -0.171706   1.000000
    4        0.105706   1.000000
    5        4.366821   0.000000
    6        5.062802   0.000000
    7        9.143174   0.000000
    8       10.454772   0.000000

  0.4800000E+00  0.3600000E+00  0.8000000E-01  0.3072000E-02
    1       -8.300253   1.000000
    2       -3.571556   1.000000
    3       -0.395685   1.000000
    4        0.012729   1.000000
    5        4.532409   0.000000
    6        5.207440   0.000000
    7        9.010560   0.000000
    8       10.648373   0.000000

 -0.4800000E+00  0.3600000E+00  0.8000000E-01  0.3072000E-02
    1       -8.165360   1.000000
    2       -3.766567   1.000000
    3       -0.647175   1.000000
    4       -0.029401   1.000000
    5        4.616094   0.000000
    6        5.585846   0.000000
    7        8.874025   0.000000
    8       10.646081   0.000000

 -0.4400000E+00  0.3600000E+00  0.8000000E-01  0.3072000E-02
    1       -8.057532   1.000000
    2       -3.910002   1.000000
    3       -0.890641   1.000000
    4       -0.025369   1.000000
    5        4.665836   0.000000
    6        6.112688   0.000000
    7        8.753417   0.000000
    8       10.490483   0.000000

 -0.4000000E+00  0.3600000E+00  0.8000000E-01  0.3072000E-02
    1       -7.990630   1.000000
    2       -3.989725   1.000000
    3       -1.098418   1.000000
    4        0.019406   1.000000
    5        4.725168   0.000000
    6        6.703421   0.000000
    7        8.664757   0.000000
    8       10.178870   0.000000

 -0.3600000E+00  0.3600000E+00  0.8000000E-01  0.3072000E-02
    1       -7.974442   1.000000
    2       -4.000517   1.000000
    3       -1.249951   1.000000
    4        0.100782   1.000000
    5        4.805825   0.000000
    6        7.278822   0.000000
    7        8.620645   0.000000
    8        9.740838   0.000000

 -0.3200000E+00  0.3600000E+00  0.8000000E-01  0.3072000E-02
    1       -8.010972   1.000000
    2       -3.947999   1.000000
    3       -1.328048   1.000000
    4        0.214631   1.000000
    5        4.906852   0.000000
    6        7.707692   0.000000
    7        8.525020   0.000000
    8        9.455387   0.000000

 -0.2800000E+00  0.3600000E+00  0.8000000E-01  0.1536000E-02
    1       -8.093746   1.000000
    2       -3.848605   1.000000
    3       -1.317317   1.000000
    4        0.355936   1.000000
    5        5.018984   0.000000
    6        7.870016   0.000000
    7        8.143086   0.000000
    8        9.702262   0.000000

  0.4800000E+00  0.4000000E+00  0.8000000E-01  0.1536000E-02
    1       -8.202119   1.000000
    2       -3.728707   1.000000
    3       -0.297340   1.000000
    4       -0.097950   1.000000
    5        4.294476   0.000000
    6        4.818256   0.000000
    7        9.738209   0.000000
    8       11.054782   0.000000

 -0.4800000E+00  0.4000000E+00  0.8000000E-01  0.3072000E-02
    1       -8.081695   1.000000
    2       -3.892510   1.000000
    3       -0.510461   1.000000
    4       -0.167223   1.000000
    5        4.461197   0.000000
    6        5.020496   0.000000
    7        9.602978   0.000000
    8       11.131866   0.000000

 -0.4400000E+00  0.4000000E+00  0.8000000E-01  0.3072000E-02
    1       -7.986055   1.000000
    2       -4.007743   1.000000
    3       -0.765308   1.000000
    4       -0.168520   1.000000
    5        4.536395   0.000000
    6        5.469764   0.000000
    7        9.464876   0.000000
    8       10.908924   0.000000

 -0.4000000E+00  0.4000000E+00  0.8000000E-01  0.3072000E-02
    1       -7.926738   1.000000
    2       -4.066350   1.000000
    3       -1.004502   1.000000
    4       -0.124760   1.000000
    5        4.599605   0.000000
    6        6.047425   0.000000
    7        9.337706   0.000000
    8       10.441312   0.000000

 -0.3600000E+00  0.4000000E+00  0.8000000E-01  0.3072000E-02
    1       -7.911410   1.000000
    2       -4.067993   1.000000
    3       -1.194252   1.000000
    4       -0.043331   1.000000
    5        4.682091   0.000000
    6        6.681442   0.000000
    7        9.218235   0.000000
    8        9.851884   0.000000

 -0.3200000E+00  0.4000000E+00  0.8000000E-01  0.1536000E-02
    1       -7.941270   1.000000
    2       -4.022447   1.000000
    3       -1.309099   1.000000
    4        0.071366   1.000000
    5        4.787025   0.000000
    6        7.300245   0.000000
    7        8.969985   0.000000
    8        9.424331   0.000000

 -0.4800000E+00  0.4400000E+00  0.8000000E-01  0.1536000E-02
    1       -8.003476   1.000000
    2       -4.023332   1.000000
    3       -0.371543   1.000000
    4       -0.246077   1.000000
    5        4.275636   0.000000
    6        4.611630   0.000000
    7       10.350115   0.000000
    8       11.448271   0.000000

 -0.4400000E+00  0.4400000E+00  0.8000000E-01  0.3072000E-02
    1       -7.927660   1.000000
    2       -4.108378   1.000000
    3       -0.578194   1.000000
    4       -0.278396   1.000000
    5        4.426399   0.000000
    6        4.891412   0.000000
    7       10.210644   0.000000
    8       11.194362   0.000000

 -0.4000000E+00  0.4400000E+00  0.8000000E-01  0.3072000E-02
    1       -7.884852   1.000000
    2       -4.139820   1.000000
    3       -0.825936   1.000000
    4       -0.237961   1.000000
    5        4.495584   0.000000
    6        5.407347   0.000000
    7       10.063153   0.000000
    8       10.638476   0.000000

 -0.3600000E+00  0.4400000E+00  0.8000000E-01  0.1536000E-02
    1       -7.879709   1.000000
    2       -4.121624   1.000000
    3       -1.043438   1.000000
    4       -0.157701   1.000000
    5        4.576729   0.000000
    6        6.023941   0.000000
    7        9.839874   0.000000
    8       10.046209   0.000000

 -0.4400000E+00  0.4800000E+00  0.8000000E-01  0.1536000E-02
    1       -7.889620   1.000000
    2       -4.185470   1.000000
    3       -0.396534   1.000000
    4       -0.333038   1.000000
    5        4.302047   0.000000
    6        4.468990   0.000000
    7       10.929890   0.000000
    8       11.384096   0.000000

 -0.4000000E+00  0.4800000E+00  0.8000000E-01  0.1536000E-02
    1       -7.871346   1.000000
    2       -4.185379   1.000000
    3       -0.600448   1.000000
    4       -0.316105   1.000000
    5        4.417208   0.000000
    6        4.844702   0.000000
    7       10.721206   0.000000
    8       10.856803   0.000000

  0.3600000E+00  0.2400000E+00  0.1200000E+00  0.1536000E-02
    1       -9.124828   1.000000
    2       -2.145287   1.000000
    3        0.185064   1.000000
    4        1.166989   1.000000
    5        5.149729   0.000000
    6        5.693160   0.000000
    7        7.670732   0.000000
    8        8.301369   0.000000

  0.4000000E+00  0.2400000E+00  0.1200000E+00  0.3072000E-02
    1       -8.956861   1.000000
    2       -2.526759   1.000000
    3       -0.081550   1.000000
    4        1.042768   1.000000
    5        5.219642   0.000000
    6        5.918795   0.000000
    7        7.573256   0.000000
    8        8.550325   0.000000

  0.4400000E+00  0.2400000E+00  0.1200000E+00  0.3072000E-02
    1       -8.780188   1.000000
    2       -2.906215   1.000000
    3       -0.288813   1.000000
    4        0.909098   1.000000
    5        5.206067   0.000000
    6        6.209460   0.000000
    7        7.556305   0.000000
    8        8.739629   0.000000

  0.4800000E+00  0.2400000E+00  0.1200000E+00  0.3072000E-02
    1       -8.605895   1.000000
    2       -3.259428   1.000000
    3       -0.442530   1.000000
    4        0.783398   1.000000
    5        5.169059   0.000000
    6        6.414500   0.000000
    7        7.705029   0.000000
    8        8.881148   0.000000

 -0.4800000E+00  0.2400000E+00  0.1200000E+00  0.3072000E-02
    1       -8.448925   1.000000
    2       -3.560127   1.000000
    3       -0.549997   1.000000
    4        0.678564   1.000000
    5        5.132605   0.000000
    6        6.484891   0.000000
    7        7.998686   0.000000
    8        9.039808   0.000000

 -0.4400000E+00  0.2400000E+00  0.1200000E+00  0.3072000E-02
    1       -8.327686   1.000000
    2       -3.781554   1.000000
    3       -0.617693   1.000000
    4        0.603724   1.000000
    5        5.105561   0.000000
    6        6.486440   0.000000
    7        8.262812   0.000000
    8        9.316934   0.000000

 -0.4000000E+00  0.2400000E+00  0.1200000E+00  0.3072000E-02
    1       -8.260866   1.000000
    2       -3.899748   1.000000
    3       -0.650308   1.000000
    4        0.564818   1.000000
    5        5.091424   0.000000
    6        6.476219   0.000000
    7        8.383255   0.000000
    8        9.681369   0.000000

  0.4000000E+00  0.2800000E+00  0.1200000E+00  0.1536000E-02
    1       -8.893368   1.000000
    2       -2.598130   1.000000
    3       -0.070808   1.000000
    4        0.785784   1.000000
    5        5.140570   0.000000
    6        5.682978   0.000000
    7        7.678674   0.000000
    8        9.011641   0.000000

  0.4400000E+00  0.2800000E+00  0.1200000E+00  0.3072000E-02
    1       -8.723841   1.000000
    2       -2.929496   1.000000
    3       -0.319363   1.000000
    4        0.658641   1.000000
    5        5.263107   0.000000
    6        5.893053   0.000000
    7        7.549847   0.000000
    8        9.262358   0.000000

  0.4800000E+00  0.2800000E+00  0.1200000E+00  0.3072000E-02
    1       -8.553588   1.000000
    2       -3.246616   1.000000
    3       -0.520551   1.000000
    4        0.535614   1.000000
    5        5.285166   0.000000
    6        6.229429   0.000000
    7        7.494118   0.000000
    8        9.407692   0.000000

 -0.4800000E+00  0.2800000E+00  0.1200000E+00  0.3072000E-02
    1       -8.395924   1.000000
    2       -3.526897   1.000000
    3       -0.677585   1.000000
    4        0.434624   1.000000
    5        5.281949   0.000000
    6        6.501941   0.000000
    7        7.616604   0.000000
    8        9.474911   0.000000

 -0.4400000E+00  0.2800000E+00  0.1200000E+00  0.3072000E-02
    1       -8.267623   1.000000
    2       -3.745584   1.000000
    3       -0.794381   1.000000
    4        0.367398   1.000000
    5        5.283535   0.000000
    6        6.600575   0.000000
    7        7.965782   0.000000
    8        9.515733   0.000000

 -0.4000000E+00  0.2800000E+00  0.1200000E+00  0.3072000E-02
    1       -8.186634   1.000000
    2       -3.878974   1.000000
    3       -0.873393   1.000000
    4        0.340358   1.000000
    5        5.297783   0.000000
    6        6.602925   0.000000
    7        8.366608   0.000000
    8        9.601850   0.000000

 -0.3600000E+00  0.2800000E+00  0.1200000E+00  0.3072000E-02
    1       -8.166869   1.000000
    2       -3.910135   1.000000
    3       -0.914555   1.000000
    4        0.355529   1.000000
    5        5.325152   0.000000
    6        6.588459   0.000000
    7        8.544320   0.000000
    8        9.767626   0.000000

 -0.3200000E+00  0.2800000E+00  0.1200000E+00  0.3072000E-02
    1       -8.212038   1.000000
    2       -3.835276   1.000000
    3       -0.915078   1.000000
    4        0.411366   1.000000
    5        5.362767   0.000000
    6        6.583362   0.000000
    7        8.366514   0.000000
    8        9.663801   0.000000

 -0.2800000E+00  0.2800000E+00  0.1200000E+00  0.3072000E-02
    1       -8.313685   1.000000
    2       -3.665838   1.000000
    3       -0.869682   1.000000
    4        0.503425   1.000000
    5        5.405582   0.000000
    6        6.580324   0.000000
    7        7.972562   0.000000
    8        9.493793   0.000000

 -0.2400000E+00  0.2800000E+00  0.1200000E+00  0.3072000E-02
    1       -8.455524   1.000000
    2       -3.424307   1.000000
    3       -0.771095   1.000000
    4        0.624621   1.000000
    5        5.445386   0.000000
    6        6.526032   0.000000
    7        7.589337   0.000000
    8        9.344692   0.000000

 -0.2000000E+00  0.2800000E+00  0.1200000E+00  0.3072000E-02
    1       -8.619687   1.000000
    2       -3.137581   1.000000
    3       -0.610979   1.000000
    4        0.764926   1.000000
    5        5.464172   0.000000
    6        6.330342   0.000000
    7        7.409843   0.000000
    8        9.151642   0.000000

 -0.1600000E+00  0.2800000E+00  0.1200000E+00  0.1536000E-02
    1       -8.790737   1.000000
    2       -2.831486   1.000000
    3       -0.381990   1.000000
    4        0.910517   1.000000
    5        5.411881   0.000000
    6        6.065129   0.000000
    7        7.442639   0.000000
    8        8.879919   0.000000

  0.4400000E+00  0.3200000E+00  0.1200000E+00  0.1536000E-02
    1       -8.646310   1.000000
    2       -3.026287   1.000000
    3       -0.281776   1.000000
    4        0.428649   1.000000
    5        5.017393   0.000000
    6        5.617911   0.000000
    7        7.910635   0.000000
    8        9.726258   0.000000

  0.4800000E+00  0.3200000E+00  0.1200000E+00  0.3072000E-02
    1       -8.483244   1.000000
    2       -3.302299   1.000000
    3       -0.510194   1.000000
    4        0.302823   1.000000
    5        5.177773   0.000000
    6        5.839475   0.000000
    7        7.769944   0.000000
    8        9.963110   0.000000

 -0.4800000E+00  0.3200000E+00  0.1200000E+00  0.3072000E-02
    1       -8.329232   1.000000
    2       -3.550784   1.000000
    3       -0.708641   1.000000
    4        0.200276   1.000000
    5        5.231132   0.000000
    6        6.244864   0.000000
    7        7.668804   0.000000
    8       10.049404   0.000000

 -0.4400000E+00  0.3200000E+00  0.1200000E+00  0.3072000E-02
    1       -8.199321   1.000000
    2       -3.751554   1.000000
    3       -0.874719   1.000000
    4        0.136335   1.000000
    5        5.260285   0.000000
    6        6.659187   0.000000
    7        7.684030   0.000000
    8       10.021215   0.000000

 -0.4000000E+00  0.3200000E+00  0.1200000E+00  0.3072000E-02
    1       -8.110051   1.000000
    2       -3.884081   1.000000
    3       -1.004323   1.000000
    4        0.117433   1.000000
    5        5.298840   0.000000
    6        6.886483   0.000000
    7        7.943503   0.000000
    8        9.893509   0.000000

 -0.3600000E+00  0.3200000E+00  0.1200000E+00  0.3072000E-02
    1       -8.075414   1.000000
    2       -3.932471   1.000000
    3       -1.091574   1.000000
    4        0.143972   1.000000
    5        5.353726   0.000000
    6        6.929829   0.000000
    7        8.323029   0.000000
    8        9.696097   0.000000

 -0.3200000E+00  0.3200000E+00  0.1200000E+00  0.3072000E-02
    1       -8.101439   1.000000
    2       -3.891509   1.000000
    3       -1.129116   1.000000
    4        0.212754   1.000000
    5        5.422553   0.000000
    6        6.920009   0.000000
    7        8.345239   0.000000
    8        9.737071   0.000000

 -0.2800000E+00  0.3200000E+00  0.1200000E+00  0.3072000E-02
    1       -8.183246   1.000000
    2       -3.769941   1.000000
    3       -1.108389   1.000000
    4        0.318266   1.000000
    5        5.496653   0.000000
    6        6.901472   0.000000
    7        7.941839   0.000000
    8        9.909825   0.000000

 -0.2400000E+00  0.3200000E+00  0.1200000E+00  0.3072000E-02
    1       -8.307558   1.000000
    2       -3.587784   1.000000
    3       -1.020110   1.000000
    4        0.452927   1.000000
    5        5.558742   0.000000
    6        6.835120   0.000000
    7        7.515107   0.000000
    8        9.802582   0.000000

 -0.2000000E+00  0.3200000E+00  0.1200000E+00  0.1536000E-02
    1       -8.458090   1.000000
    2       -3.369646   1.000000
    3       -0.855817   1.000000
    4        0.606496   1.000000
    5        5.572242   0.000000
    6        6.598033   0.000000
    7        7.348925   0.000000
    8        9.529299   0.000000

  0.4800000E+00  0.3600000E+00  0.1200000E+00  0.1536000E-02
    1       -8.397491   1.000000
    2       -3.418136   1.000000
    3       -0.442480   1.000000
    4        0.113582   1.000000
    5        4.903932   0.000000
    6        5.450339   0.000000
    7        8.336644   0.000000
    8       10.409728   0.000000

 -0.4800000E+00  0.3600000E+00  0.1200000E+00  0.3072000E-02
    1       -8.251639   1.000000
    2       -3.632552   1.000000
    3       -0.650292   1.000000
    4       -0.003529   1.000000
    5        5.078775   0.000000
    6        5.712694   0.000000
    7        8.192833   0.000000
    8       10.582196   0.000000

 -0.4400000E+00  0.3600000E+00  0.1200000E+00  0.3072000E-02
    1       -8.126018   1.000000
    2       -3.806706   1.000000
    3       -0.850298   1.000000
    4       -0.072373   1.000000
    5        5.144491   0.000000
    6        6.187585   0.000000
    7        8.070339   0.000000
    8       10.504350   0.000000

 -0.4000000E+00  0.3600000E+00  0.1200000E+00  0.3072000E-02
    1       -8.035347   1.000000
    2       -3.925009   1.000000
    3       -1.026884   1.000000
    4       -0.087768   1.000000
    5        5.196960   0.000000
    6        6.722170   0.000000
    7        8.004240   0.000000
    8       10.174693   0.000000

 -0.3600000E+00  0.3600000E+00  0.1200000E+00  0.3072000E-02
    1       -7.992516   1.000000
    2       -3.975529   1.000000
    3       -1.162642   1.000000
    4       -0.053261   1.000000
    5        5.264402   0.000000
    6        7.162496   0.000000
    7        8.069400   0.000000
    8        9.681494   0.000000

 -0.3200000E+00  0.3600000E+00  0.1200000E+00  0.3072000E-02
    1       -8.004197   1.000000
    2       -3.954894   1.000000
    3       -1.242110   1.000000
    4        0.025322   1.000000
    5        5.349429   0.000000
    6        7.353417   0.000000
    7        8.202698   0.000000
    8        9.348795   0.000000

 -0.2800000E+00  0.3600000E+00  0.1200000E+00  0.3072000E-02
    1       -8.068017   1.000000
    2       -3.871234   1.000000
    3       -1.251797   1.000000
    4        0.141413   1.000000
    5        5.444417   0.000000
    6        7.388309   0.000000
    7        7.908989   0.000000
    8        9.627957   0.000000

 -0.2400000E+00  0.3600000E+00  0.1200000E+00  0.1536000E-02
    1       -8.173775   1.000000
    2       -3.742076   1.000000
    3       -1.180276   1.000000
    4        0.287282   1.000000
    5        5.529583   0.000000
    6        7.266709   0.000000
    7        7.525748   0.000000
    8       10.028500   0.000000

 -0.4800000E+00  0.4000000E+00  0.1200000E+00  0.1536000E-02
    1       -8.167261   1.000000
    2       -3.754969   1.000000
    3       -0.549128   1.000000
    4       -0.147730   1.000000
    5        4.829633   0.000000
    6        5.254808   0.000000
    7        8.871929   0.000000
    8       10.957996   0.000000

 -0.4400000E+00  0.4000000E+00  0.1200000E+00  0.3072000E-02
    1       -8.052243   1.000000
    2       -3.900361   1.000000
    3       -0.738828   1.000000
    4       -0.244409   1.000000
    5        5.002660   0.000000
    6        5.578125   0.000000
    7        8.727613   0.000000
    8       10.849144   0.000000

 -0.4000000E+00  0.4000000E+00  0.1200000E+00  0.3072000E-02
    1       -7.967861   1.000000
    2       -3.996420   1.000000
    3       -0.944352   1.000000
    4       -0.264494   1.000000
    5        5.073107   0.000000
    6        6.115869   0.000000
    7        8.597905   0.000000
    8       10.368722   0.000000

 -0.3600000E+00  0.4000000E+00  0.1200000E+00  0.3072000E-02
    1       -7.925012   1.000000
    2       -4.036259   1.000000
    3       -1.124482   1.000000
    4       -0.225089   1.000000
    5        5.145765   0.000000
    6        6.717415   0.000000
    7        8.494389   0.000000
    8        9.744108   0.000000

 -0.3200000E+00  0.4000000E+00  0.1200000E+00  0.3072000E-02
    1       -7.929432   1.000000
    2       -4.020800   1.000000
    3       -1.248872   1.000000
    4       -0.138861   1.000000
    5        5.237104   0.000000
    6        7.282799   0.000000
    7        8.386679   0.000000
    8        9.199659   0.000000

 -0.2800000E+00  0.4000000E+00  0.1200000E+00  0.1536000E-02
    1       -7.979682   1.000000
    2       -3.960263   1.000000
    3       -1.296290   1.000000
    4       -0.014113   1.000000
    5        5.342666   0.000000
    6        7.633120   0.000000
    7        8.064342   0.000000
    8        9.162949   0.000000

 -0.4400000E+00  0.4400000E+00  0.1200000E+00  0.1536000E-02
    1       -7.983850   1.000000
    2       -4.009356   1.000000
    3       -0.599773   1.000000
    4       -0.347222   1.000000
    5        4.801870   0.000000
    6        5.082299   0.000000
    7        9.461797   0.000000
    8       11.060863   0.000000

 -0.4000000E+00  0.4400000E+00  0.1200000E+00  0.3072000E-02
    1       -7.913904   1.000000
    2       -4.079022   1.000000
    3       -0.780733   1.000000
    4       -0.404102   1.000000
    5        4.957416   0.000000
    6        5.482449   0.000000
    7        9.316374   0.000000
    8       10.524503   0.000000

 -0.3600000E+00  0.4400000E+00  0.1200000E+00  0.3072000E-02
    1       -7.880060   1.000000
    2       -4.098929   1.000000
    3       -0.991020   1.000000
    4       -0.363829   1.000000
    5        5.034418   0.000000
    6        6.072390   0.000000
    7        9.171916   0.000000
    8        9.851441   0.000000

 -0.3200000E+00  0.4400000E+00  0.1200000E+00  0.1536000E-02
    1       -7.885902   1.000000
    2       -4.074836   1.000000
    3       -1.158309   1.000000
    4       -0.271127   1.000000
    5        5.126992   0.000000
    6        6.709644   0.000000
    7        8.917454   0.000000
    8        9.308892   0.000000

 -0.4000000E+00  0.4800000E+00  0.1200000E+00  0.1536000E-02
    1       -7.879966   1.000000
    2       -4.148762   1.000000
    3       -0.599848   1.000000
    4       -0.473577   1.000000
    5        4.814236   0.000000
    6        4.964976   0.000000
    7       10.062885   0.000000
    8       10.670073   0.000000

 -0.3600000E+00  0.4800000E+00  0.1200000E+00  0.1536000E-02
    1       -7.863876   1.000000
    2       -4.142386   1.000000
    3       -0.790748   1.000000
    4       -0.461913   1.000000
    5        4.942702   0.000000
    6        5.448225   0.000000
    7        9.822896   0.000000
    8       10.060442   0.000000

  0.4800000E+00  0.3200000E+00  0.1600000E+00  0.1536000E-02
    1       -8.560404   1.000000
    2       -3.192453   1.000000
    3       -0.579899   1.000000
    4        0.515473   1.000000
    5        5.544187   0.000000
    6        5.984090   0.000000
    7        7.403776   0.000000
    8        9.636987   0.000000

 -0.4800000E+00  0.3200000E+00  0.1600000E+00  0.3072000E-02
    1       -8.400540   1.000000
    2       -3.443244   1.000000
    3       -0.781734   1.000000
    4        0.372594   1.000000
    5        5.647236   0.000000
    6        6.274772   0.000000
    7        7.339180   0.000000
    8        9.888351   0.000000

 -0.4400000E+00  0.3200000E+00  0.1600000E+00  0.3072000E-02
    1       -8.257971   1.000000
    2       -3.662347   1.000000
    3       -0.926278   1.000000
    4        0.249611   1.000000
    5        5.661118   0.000000
    6        6.532190   0.000000
    7        7.488257   0.000000
    8        9.989804   0.000000

 -0.4000000E+00  0.3200000E+00  0.1600000E+00  0.3072000E-02
    1       -8.148950   1.000000
    2       -3.826973   1.000000
    3       -1.018263   1.000000
    4        0.160288   1.000000
    5        5.661126   0.000000
    6        6.603259   0.000000
    7        7.894631   0.000000
    8        9.934186   0.000000

 -0.3600000E+00  0.3200000E+00  0.1600000E+00  0.3072000E-02
    1       -8.089300   1.000000
    2       -3.915894   1.000000
    3       -1.062715   1.000000
    4        0.113441   1.000000
    5        5.660421   0.000000
    6        6.602633   0.000000
    7        8.311238   0.000000
    8        9.717615   0.000000

 -0.4800000E+00  0.3600000E+00  0.1600000E+00  0.1536000E-02
    1       -8.331517   1.000000
    2       -3.517619   1.000000
    3       -0.722734   1.000000
    4        0.147308   1.000000
    5        5.521980   0.000000
    6        5.914229   0.000000
    7        7.618418   0.000000
    8       10.338958   0.000000

 -0.4400000E+00  0.3600000E+00  0.1600000E+00  0.3072000E-02
    1       -8.193367   1.000000
    2       -3.707266   1.000000
    3       -0.895374   1.000000
    4        0.012589   1.000000
    5        5.670538   0.000000
    6        6.257386   0.000000
    7        7.510594   0.000000
    8       10.443091   0.000000

 -0.4000000E+00  0.3600000E+00  0.1600000E+00  0.3072000E-02
    1       -8.083190   1.000000
    2       -3.854404   1.000000
    3       -1.027910   1.000000
    4       -0.081201   1.000000
    5        5.718677   0.000000
    6        6.660859   0.000000
    7        7.540041   0.000000
    8       10.152803   0.000000

 -0.3600000E+00  0.3600000E+00  0.1600000E+00  0.3072000E-02
    1       -8.015460   1.000000
    2       -3.942333   1.000000
    3       -1.119550   1.000000
    4       -0.123083   1.000000
    5        5.763473   0.000000
    6        6.839347   0.000000
    7        7.843580   0.000000
    8        9.630494   0.000000

 -0.3200000E+00  0.3600000E+00  0.1600000E+00  0.3072000E-02
    1       -8.000703   1.000000
    2       -3.959665   1.000000
    3       -1.166898   1.000000
    4       -0.110028   1.000000
    5        5.814854   0.000000
    6        6.852644   0.000000
    7        8.120584   0.000000
    8        9.294528   0.000000

 -0.2800000E+00  0.3600000E+00  0.1600000E+00  0.3072000E-02
    1       -8.041302   1.000000
    2       -3.905213   1.000000
    3       -1.163804   1.000000
    4       -0.044984   1.000000
    5        5.865948   0.000000
    6        6.829517   0.000000
    7        7.839933   0.000000
    8        9.606633   0.000000

 -0.2400000E+00  0.3600000E+00  0.1600000E+00  0.3072000E-02
    1       -8.130410   1.000000
    2       -3.789119   1.000000
    3       -1.102674   1.000000
    4        0.064898   1.000000
    5        5.899672   0.000000
    6        6.747359   0.000000
    7        7.413633   0.000000
    8       10.117896   0.000000

 -0.2000000E+00  0.3600000E+00  0.1600000E+00  0.1536000E-02
    1       -8.255046   1.000000
    2       -3.628922   1.000000
    3       -0.976551   1.000000
    4        0.208986   1.000000
    5        5.868405   0.000000
    6        6.485143   0.000000
    7        7.264053   0.000000
    8       10.228946   0.000000

 -0.4400000E+00  0.4000000E+00  0.1600000E+00  0.1536000E-02
    1       -8.123257   1.000000
    2       -3.792945   1.000000
    3       -0.806054   1.000000
    4       -0.172518   1.000000
    5        5.471512   0.000000
    6        5.791655   0.000000
    7        8.041228   0.000000
    8       10.716337   0.000000

 -0.4000000E+00  0.4000000E+00  0.1600000E+00  0.3072000E-02
    1       -8.018681   1.000000
    2       -3.916246   1.000000
    3       -0.950109   1.000000
    4       -0.289388   1.000000
    5        5.631378   0.000000
    6        6.202020   0.000000
    7        7.913172   0.000000
    8       10.290761   0.000000

 -0.3600000E+00  0.4000000E+00  0.1600000E+00  0.3072000E-02
    1       -7.950435   1.000000
    2       -3.991347   1.000000
    3       -1.078865   1.000000
    4       -0.335135   1.000000
    5        5.698710   0.000000
    6        6.736426   0.000000
    7        7.845295   0.000000
    8        9.651148   0.000000

 -0.3200000E+00  0.4000000E+00  0.1600000E+00  0.3072000E-02
    1       -7.927938   1.000000
    2       -4.011447   1.000000
    3       -1.175868   1.000000
    4       -0.311574   1.000000
    5        5.772007   0.000000
    6        7.138663   0.000000
    7        7.895052   0.000000
    8        9.077247   0.000000

 -0.2800000E+00  0.4000000E+00  0.1600000E+00  0.3072000E-02
    1       -7.954270   1.000000
    2       -3.977468   1.000000
    3       -1.221581   1.000000
    4       -0.229218   1.000000
    5        5.852548   0.000000
    6        7.266640   0.000000
    7        7.781133   0.000000
    8        9.033663   0.000000

 -0.2400000E+00  0.4000000E+00  0.1600000E+00  0.1536000E-02
    1       -8.025085   1.000000
    2       -3.898644   1.000000
    3       -1.200378   1.000000
    4       -0.099660   1.000000
    5        5.918521   0.000000
    6        7.154393   0.000000
    7        7.433951   0.000000
    8        9.569417   0.000000

 -0.4000000E+00  0.4400000E+00  0.1600000E+00  0.1536000E-02
    1       -7.960369   1.000000
    2       -3.998006   1.000000
    3       -0.827599   1.000000
    4       -0.428726   1.000000
    5        5.446353   0.000000
    6        5.661854   0.000000
    7        8.577032   0.000000
    8       10.408760   0.000000

 -0.3600000E+00  0.4400000E+00  0.1600000E+00  0.3072000E-02
    1       -7.899909   1.000000
    2       -4.052848   1.000000
    3       -0.952978   1.000000
    4       -0.507748   1.000000
    5        5.595340   0.000000
    6        6.145440   0.000000
    7        8.439603   0.000000
    8        9.729533   0.000000

 -0.3200000E+00  0.4400000E+00  0.1600000E+00  0.3072000E-02
    1       -7.878172   1.000000
    2       -4.063270   1.000000
    3       -1.093315   1.000000
    4       -0.478177   1.000000
    5        5.676419   0.000000
    6        6.746575   0.000000
    7        8.304323   0.000000
    8        9.073176   0.000000

 -0.2800000E+00  0.4400000E+00  0.1600000E+00  0.1536000E-02
    1       -7.897393   1.000000
    2       -4.034445   1.000000
    3       -1.193359   1.000000
    4       -0.378132   1.000000
    5        5.767521   0.000000
    6        7.261444   0.000000
    7        8.016360   0.000000
    8        8.762180   0.000000

 -0.3600000E+00  0.4800000E+00  0.1600000E+00  0.1536000E-02
    1       -7.869562   1.000000
    2       -4.109157   1.000000
    3       -0.795966   1.000000
    4       -0.601835   1.000000
    5        5.453651   0.000000
    6        5.568158   0.000000
    7        9.156435   0.000000
    8        9.847245   0.000000

 -0.3200000E+00  0.4800000E+00  0.1600000E+00  0.1536000E-02
    1       -7.857531   1.000000
    2       -4.100708   1.000000
    3       -0.939821   1.000000
    4       -0.595837   1.000000
    5        5.581984   0.000000
    6        6.123234   0.000000
    7        8.890600   0.000000
    8        9.254209   0.000000

 -0.4000000E+00  0.4000000E+00  0.2000000E+00  0.1536000E-02
    1       -8.074343   1.000000
    2       -3.841679   1.000000
    3       -1.031379   1.000000
    4       -0.156909   1.000000
    5        6.046607   0.000000
    6        6.396485   0.000000
    7        7.402980   0.000000
    8       10.212330   0.000000

 -0.3600000E+00  0.4000000E+00  0.2000000E+00  0.3072000E-02
    1       -7.984858   1.000000
    2       -3.941949   1.000000
    3       -1.117652   1.000000
    4       -0.284422   1.000000
    5        6.148878   0.000000
    6        6.742502   0.000000
    7        7.446631   0.000000
    8        9.586831   0.000000

 -0.3200000E+00  0.4000000E+00  0.2000000E+00  0.3072000E-02
    1       -7.936537   1.000000
    2       -3.995962   1.000000
    3       -1.158744   1.000000
    4       -0.352884   1.000000
    5        6.170782   0.000000
    6        6.893490   0.000000
    7        7.743614   0.000000
    8        9.017661   0.000000

 -0.3600000E+00  0.4400000E+00  0.2000000E+00  0.1536000E-02
    1       -7.936240   1.000000
    2       -3.995570   1.000000
    3       -1.017584   1.000000
    4       -0.466117   1.000000
    5        6.116192   0.000000
    6        6.305898   0.000000
    7        7.783208   0.000000
    8        9.637258   0.000000

 -0.3200000E+00  0.4400000E+00  0.2000000E+00  0.3072000E-02
    1       -7.888228   1.000000
    2       -4.038301   1.000000
    3       -1.071662   1.000000
    4       -0.560205   1.000000
    5        6.240708   0.000000
    6        6.774452   0.000000
    7        7.708664   0.000000
    8        8.966149   0.000000

 -0.2800000E+00  0.4400000E+00  0.2000000E+00  0.3072000E-02
    1       -7.880726   1.000000
    2       -4.041450   1.000000
    3       -1.120915   1.000000
    4       -0.549348   1.000000
    5        6.295570   0.000000
    6        7.113152   0.000000
    7        7.648035   0.000000
    8        8.594337   0.000000

 -0.2400000E+00  0.4400000E+00  0.2000000E+00  0.1536000E-02
    1       -7.914502   1.000000
    2       -4.007120   1.000000
    3       -1.144578   1.000000
    4       -0.448437   1.000000
    5        6.311215   0.000000
    6        7.042949   0.000000
    7        7.445050   0.000000
    8        8.936969   0.000000

 -0.3200000E+00  0.4800000E+00  0.2000000E+00  0.1536000E-02
    1       -7.860693   1.000000
    2       -4.077182   1.000000
    3       -0.946400   1.000000
    4       -0.689461   1.000000
    5        6.161337   0.000000
    6        6.222806   0.000000
    7        8.278042   0.000000
    8        9.035322   0.000000

 -0.2800000E+00  0.4800000E+00  0.2000000E+00  0.1536000E-02
    1       -7.854251   1.000000
    2       -4.071348   1.000000
    3       -1.023070   1.000000
    4       -0.687277   1.000000
    5        6.255984   0.000000
    6        6.783238   0.000000
    7        7.994746   0.000000
    8        8.572269   0.000000

 -0.2800000E+00  0.4800000E+00  0.2400000E+00  0.1536000E-02
    1       -7.855252   1.000000
    2       -4.062802   1.000000
    3       -1.025992   1.000000
    4       -0.719944   1.000000
    5        6.600149   0.000000
    6        6.936733   0.000000
    7        7.579660   0.000000
    8        8.438494   0.000000
